;; UNITS: SI (m)
[TITLE]
WebGPU M2 — 1D/2D junction coupling parity

[OPTIONS]
FLOW_UNITS           CMS
INFILTRATION         HORTON
FLOW_ROUTING         DYNWAVE
LINK_OFFSETS         DEPTH
MIN_SLOPE            0
ALLOW_PONDING        NO
SKIP_STEADY_STATE    NO

START_DATE           06/29/2012
START_TIME           00:00:00
REPORT_START_DATE    06/29/2012
REPORT_START_TIME    00:00:00
END_DATE             06/29/2012
END_TIME             01:00:00
SWEEP_START          06/16
SWEEP_END            06/17
DRY_DAYS             0
REPORT_STEP          00:15:00
WET_STEP             00:01:00
DRY_STEP             00:15:00
ROUTING_STEP         00:01:00

[TIMESERIES]
TS_INFLOW  06/29/2012 00:00   0.500
TS_INFLOW  06/29/2012 23:59   0.500

[STORAGE]
S1          0.0        10.0       0        0        FUNC       100.0

[OUTFALLS]
O1          0.0         FREE        NO

[CONDUITS]
C1          S1          O1          100.0     0.01     0       0       0

[XSECTIONS]
C1          CIRCULAR    0.1        0        0        0        0        0

[COORDINATES]
S1          10.0        55.0
O1          10.05       55.0

[INFLOWS]
S1          FLOW        TS_INFLOW




