;; UNITS: SI (m)
[TITLE]
WebGPU M1 marcher parity — closed basin, uniform rain

[OPTIONS]
FLOW_UNITS           CMS
INFILTRATION         HORTON
FLOW_ROUTING         DYNWAVE
LINK_OFFSETS         DEPTH
MIN_SLOPE            0
ALLOW_PONDING        NO
SKIP_STEADY_STATE    NO

START_DATE           06/29/2012
START_TIME           00:00:00
REPORT_START_DATE    06/29/2012
REPORT_START_TIME    00:00:00
END_DATE             06/29/2012
END_TIME             01:00:00
SWEEP_START          06/16
SWEEP_END            06/17
DRY_DAYS             0
REPORT_STEP          00:15:00
WET_STEP             00:01:00
DRY_STEP             00:15:00
ROUTING_STEP         00:01:00

[RAINGAGES]
RG1           INTENSITY  00:05  1.0  TIMESERIES TS_RAIN

[TIMESERIES]
TS_RAIN  06/29/2012 00:00   720.000
TS_RAIN  06/29/2012 00:05   720.000
TS_RAIN  06/29/2012 00:10   720.000
TS_RAIN  06/29/2012 00:15   720.000
TS_RAIN  06/29/2012 00:20   720.000
TS_RAIN  06/29/2012 00:25   720.000
TS_RAIN  06/29/2012 00:30   720.000
TS_RAIN  06/29/2012 00:35   720.000
TS_RAIN  06/29/2012 00:40   720.000
TS_RAIN  06/29/2012 00:45   720.000
TS_RAIN  06/29/2012 00:50   720.000
TS_RAIN  06/29/2012 00:55   720.000
TS_RAIN  06/29/2012 01:00   720.000

[SUBCATCHMENTS]
S1          RG1          O1           0.001   0       1       0.01    0

[SUBAREAS]
S1          100         100         0.05    0.2

[INFILTRATION]
;; HORTON: S1 0.0 0.0 0 0 0  (none — dry impervious subcatchment)
S1          0.0         0.0         0       0       0

[OUTFALLS]
O1          0.0         FREE        NO

[COORDINATES]
O1          10.0        55.0

[POLYGONS]
S1          9.9         54.9
S1          10.1        54.9
S1          10.1        55.1
S1          9.9         55.1

[2D_OPTIONS]
MAX_TIMESTEP         10.0
DRY_DEPTH            0.001
COUPLING_SYNC        1.0
THETA                0.5
CFL_NUMBER           0.8
H_MOVE               0.003
FROUDE_MAX           1.0
LTS_TIERS            1
LIMITER_EPSILON      1e-6
FLUX_DH_EPS          1e-6
CELL_CLOSURE         FLAT
FACE_RECONSTRUCTION  MEAN
VFR_MIN_WET_FRAC     0.1
INTEGRATOR           EXPLICIT
COUPLING_CD          0.65
COUPLING_AREA        DEFAULT
RAINFALL_MODE        SYSTEM
REPORT_2D            YES

[2D_VERTICES]
;;X               Y               Z               TAG
0.0000          0.0000          0.0000          -
10.0000         0.0000          0.5622          -
20.0000         0.0000          1.1204          -
30.0000         0.0000          1.6711          -
40.0000         0.0000          2.2111          -
50.0000         0.0000          2.7378          -
60.0000         0.0000          3.2495          -
70.0000         0.0000          3.7456          -
80.0000         0.0000          4.2262          -
90.0000         0.0000          4.6926          -
100.0000        0.0000          5.1469          -
110.0000        0.0000          5.5920          -
120.0000        0.0000          6.0313          -
130.0000        0.0000          6.4687          -
140.0000        0.0000          6.9080          -
150.0000        0.0000          7.3531          -
160.0000        0.0000          7.8074          -
170.0000        0.0000          8.2738          -
180.0000        0.0000          8.7544          -
190.0000        0.0000          9.2505          -
200.0000        0.0000          9.7622          -
210.0000        0.0000          10.2889         -
220.0000        0.0000          10.8289         -
230.0000        0.0000          11.3796         -
240.0000        0.0000          11.9378         -
250.0000        0.0000          12.5000         -
260.0000        0.0000          13.0622         -
270.0000        0.0000          13.6204         -
280.0000        0.0000          14.1711         -
290.0000        0.0000          14.7111         -
300.0000        0.0000          15.2378         -
310.0000        0.0000          15.7495         -
320.0000        0.0000          16.2456         -
330.0000        0.0000          16.7262         -
340.0000        0.0000          17.1926         -
350.0000        0.0000          17.6469         -
360.0000        0.0000          18.0920         -
370.0000        0.0000          18.5313         -
380.0000        0.0000          18.9687         -
390.0000        0.0000          19.4080         -
400.0000        0.0000          19.8531         -
410.0000        0.0000          20.3074         -
420.0000        0.0000          20.7738         -
430.0000        0.0000          21.2544         -
440.0000        0.0000          21.7505         -
450.0000        0.0000          22.2622         -
460.0000        0.0000          22.7889         -
470.0000        0.0000          23.3289         -
480.0000        0.0000          23.8796         -
490.0000        0.0000          24.4378         -
500.0000        0.0000          25.0000         -
0.0000          10.0000         0.2000          -
10.0000         10.0000         0.7622          -
20.0000         10.0000         1.3204          -
30.0000         10.0000         1.8711          -
40.0000         10.0000         2.4111          -
50.0000         10.0000         2.9378          -
60.0000         10.0000         3.4495          -
70.0000         10.0000         3.9456          -
80.0000         10.0000         4.4262          -
90.0000         10.0000         4.8926          -
100.0000        10.0000         5.3469          -
110.0000        10.0000         5.7920          -
120.0000        10.0000         6.2313          -
130.0000        10.0000         6.6687          -
140.0000        10.0000         7.1080          -
150.0000        10.0000         7.5531          -
160.0000        10.0000         8.0074          -
170.0000        10.0000         8.4738          -
180.0000        10.0000         8.9544          -
190.0000        10.0000         9.4505          -
200.0000        10.0000         9.9622          -
210.0000        10.0000         10.4889         -
220.0000        10.0000         11.0289         -
230.0000        10.0000         11.5796         -
240.0000        10.0000         12.1378         -
250.0000        10.0000         12.7000         -
260.0000        10.0000         13.2622         -
270.0000        10.0000         13.8204         -
280.0000        10.0000         14.3711         -
290.0000        10.0000         14.9111         -
300.0000        10.0000         15.4378         -
310.0000        10.0000         15.9495         -
320.0000        10.0000         16.4456         -
330.0000        10.0000         16.9262         -
340.0000        10.0000         17.3926         -
350.0000        10.0000         17.8469         -
360.0000        10.0000         18.2920         -
370.0000        10.0000         18.7313         -
380.0000        10.0000         19.1687         -
390.0000        10.0000         19.6080         -
400.0000        10.0000         20.0531         -
410.0000        10.0000         20.5074         -
420.0000        10.0000         20.9738         -
430.0000        10.0000         21.4544         -
440.0000        10.0000         21.9505         -
450.0000        10.0000         22.4622         -
460.0000        10.0000         22.9889         -
470.0000        10.0000         23.5289         -
480.0000        10.0000         24.0796         -
490.0000        10.0000         24.6378         -
500.0000        10.0000         25.2000         -
0.0000          20.0000         0.4000          -
10.0000         20.0000         0.9622          -
20.0000         20.0000         1.5204          -
30.0000         20.0000         2.0711          -
40.0000         20.0000         2.6111          -
50.0000         20.0000         3.1378          -
60.0000         20.0000         3.6495          -
70.0000         20.0000         4.1456          -
80.0000         20.0000         4.6262          -
90.0000         20.0000         5.0926          -
100.0000        20.0000         5.5469          -
110.0000        20.0000         5.9920          -
120.0000        20.0000         6.4313          -
130.0000        20.0000         6.8687          -
140.0000        20.0000         7.3080          -
150.0000        20.0000         7.7531          -
160.0000        20.0000         8.2074          -
170.0000        20.0000         8.6738          -
180.0000        20.0000         9.1544          -
190.0000        20.0000         9.6505          -
200.0000        20.0000         10.1622         -
210.0000        20.0000         10.6889         -
220.0000        20.0000         11.2289         -
230.0000        20.0000         11.7796         -
240.0000        20.0000         12.3378         -
250.0000        20.0000         12.9000         -
260.0000        20.0000         13.4622         -
270.0000        20.0000         14.0204         -
280.0000        20.0000         14.5711         -
290.0000        20.0000         15.1111         -
300.0000        20.0000         15.6378         -
310.0000        20.0000         16.1495         -
320.0000        20.0000         16.6456         -
330.0000        20.0000         17.1262         -
340.0000        20.0000         17.5926         -
350.0000        20.0000         18.0469         -
360.0000        20.0000         18.4920         -
370.0000        20.0000         18.9313         -
380.0000        20.0000         19.3687         -
390.0000        20.0000         19.8080         -
400.0000        20.0000         20.2531         -
410.0000        20.0000         20.7074         -
420.0000        20.0000         21.1738         -
430.0000        20.0000         21.6544         -
440.0000        20.0000         22.1505         -
450.0000        20.0000         22.6622         -
460.0000        20.0000         23.1889         -
470.0000        20.0000         23.7289         -
480.0000        20.0000         24.2796         -
490.0000        20.0000         24.8378         -
500.0000        20.0000         25.4000         -
0.0000          30.0000         0.6000          -
10.0000         30.0000         1.1622          -
20.0000         30.0000         1.7204          -
30.0000         30.0000         2.2711          -
40.0000         30.0000         2.8111          -
50.0000         30.0000         3.3378          -
60.0000         30.0000         3.8495          -
70.0000         30.0000         4.3456          -
80.0000         30.0000         4.8262          -
90.0000         30.0000         5.2926          -
100.0000        30.0000         5.7469          -
110.0000        30.0000         6.1920          -
120.0000        30.0000         6.6313          -
130.0000        30.0000         7.0687          -
140.0000        30.0000         7.5080          -
150.0000        30.0000         7.9531          -
160.0000        30.0000         8.4074          -
170.0000        30.0000         8.8738          -
180.0000        30.0000         9.3544          -
190.0000        30.0000         9.8505          -
200.0000        30.0000         10.3622         -
210.0000        30.0000         10.8889         -
220.0000        30.0000         11.4289         -
230.0000        30.0000         11.9796         -
240.0000        30.0000         12.5378         -
250.0000        30.0000         13.1000         -
260.0000        30.0000         13.6622         -
270.0000        30.0000         14.2204         -
280.0000        30.0000         14.7711         -
290.0000        30.0000         15.3111         -
300.0000        30.0000         15.8378         -
310.0000        30.0000         16.3495         -
320.0000        30.0000         16.8456         -
330.0000        30.0000         17.3262         -
340.0000        30.0000         17.7926         -
350.0000        30.0000         18.2469         -
360.0000        30.0000         18.6920         -
370.0000        30.0000         19.1313         -
380.0000        30.0000         19.5687         -
390.0000        30.0000         20.0080         -
400.0000        30.0000         20.4531         -
410.0000        30.0000         20.9074         -
420.0000        30.0000         21.3738         -
430.0000        30.0000         21.8544         -
440.0000        30.0000         22.3505         -
450.0000        30.0000         22.8622         -
460.0000        30.0000         23.3889         -
470.0000        30.0000         23.9289         -
480.0000        30.0000         24.4796         -
490.0000        30.0000         25.0378         -
500.0000        30.0000         25.6000         -
0.0000          40.0000         0.8000          -
10.0000         40.0000         1.3622          -
20.0000         40.0000         1.9204          -
30.0000         40.0000         2.4711          -
40.0000         40.0000         3.0111          -
50.0000         40.0000         3.5378          -
60.0000         40.0000         4.0495          -
70.0000         40.0000         4.5456          -
80.0000         40.0000         5.0262          -
90.0000         40.0000         5.4926          -
100.0000        40.0000         5.9469          -
110.0000        40.0000         6.3920          -
120.0000        40.0000         6.8313          -
130.0000        40.0000         7.2687          -
140.0000        40.0000         7.7080          -
150.0000        40.0000         8.1531          -
160.0000        40.0000         8.6074          -
170.0000        40.0000         9.0738          -
180.0000        40.0000         9.5544          -
190.0000        40.0000         10.0505         -
200.0000        40.0000         10.5622         -
210.0000        40.0000         11.0889         -
220.0000        40.0000         11.6289         -
230.0000        40.0000         12.1796         -
240.0000        40.0000         12.7378         -
250.0000        40.0000         13.3000         -
260.0000        40.0000         13.8622         -
270.0000        40.0000         14.4204         -
280.0000        40.0000         14.9711         -
290.0000        40.0000         15.5111         -
300.0000        40.0000         16.0378         -
310.0000        40.0000         16.5495         -
320.0000        40.0000         17.0456         -
330.0000        40.0000         17.5262         -
340.0000        40.0000         17.9926         -
350.0000        40.0000         18.4469         -
360.0000        40.0000         18.8920         -
370.0000        40.0000         19.3313         -
380.0000        40.0000         19.7687         -
390.0000        40.0000         20.2080         -
400.0000        40.0000         20.6531         -
410.0000        40.0000         21.1074         -
420.0000        40.0000         21.5738         -
430.0000        40.0000         22.0544         -
440.0000        40.0000         22.5505         -
450.0000        40.0000         23.0622         -
460.0000        40.0000         23.5889         -
470.0000        40.0000         24.1289         -
480.0000        40.0000         24.6796         -
490.0000        40.0000         25.2378         -
500.0000        40.0000         25.8000         -
0.0000          50.0000         1.0000          -
10.0000         50.0000         1.5622          -
20.0000         50.0000         2.1204          -
30.0000         50.0000         2.6711          -
40.0000         50.0000         3.2111          -
50.0000         50.0000         3.7378          -
60.0000         50.0000         4.2495          -
70.0000         50.0000         4.7456          -
80.0000         50.0000         5.2262          -
90.0000         50.0000         5.6926          -
100.0000        50.0000         6.1469          -
110.0000        50.0000         6.5920          -
120.0000        50.0000         7.0313          -
130.0000        50.0000         7.4687          -
140.0000        50.0000         7.9080          -
150.0000        50.0000         8.3531          -
160.0000        50.0000         8.8074          -
170.0000        50.0000         9.2738          -
180.0000        50.0000         9.7544          -
190.0000        50.0000         10.2505         -
200.0000        50.0000         10.7622         -
210.0000        50.0000         11.2889         -
220.0000        50.0000         11.8289         -
230.0000        50.0000         12.3796         -
240.0000        50.0000         12.9378         -
250.0000        50.0000         13.5000         -
260.0000        50.0000         14.0622         -
270.0000        50.0000         14.6204         -
280.0000        50.0000         15.1711         -
290.0000        50.0000         15.7111         -
300.0000        50.0000         16.2378         -
310.0000        50.0000         16.7495         -
320.0000        50.0000         17.2456         -
330.0000        50.0000         17.7262         -
340.0000        50.0000         18.1926         -
350.0000        50.0000         18.6469         -
360.0000        50.0000         19.0920         -
370.0000        50.0000         19.5313         -
380.0000        50.0000         19.9687         -
390.0000        50.0000         20.4080         -
400.0000        50.0000         20.8531         -
410.0000        50.0000         21.3074         -
420.0000        50.0000         21.7738         -
430.0000        50.0000         22.2544         -
440.0000        50.0000         22.7505         -
450.0000        50.0000         23.2622         -
460.0000        50.0000         23.7889         -
470.0000        50.0000         24.3289         -
480.0000        50.0000         24.8796         -
490.0000        50.0000         25.4378         -
500.0000        50.0000         26.0000         -
0.0000          60.0000         1.2000          -
10.0000         60.0000         1.7622          -
20.0000         60.0000         2.3204          -
30.0000         60.0000         2.8711          -
40.0000         60.0000         3.4111          -
50.0000         60.0000         3.9378          -
60.0000         60.0000         4.4495          -
70.0000         60.0000         4.9456          -
80.0000         60.0000         5.4262          -
90.0000         60.0000         5.8926          -
100.0000        60.0000         6.3469          -
110.0000        60.0000         6.7920          -
120.0000        60.0000         7.2313          -
130.0000        60.0000         7.6687          -
140.0000        60.0000         8.1080          -
150.0000        60.0000         8.5531          -
160.0000        60.0000         9.0074          -
170.0000        60.0000         9.4738          -
180.0000        60.0000         9.9544          -
190.0000        60.0000         10.4505         -
200.0000        60.0000         10.9622         -
210.0000        60.0000         11.4889         -
220.0000        60.0000         12.0289         -
230.0000        60.0000         12.5796         -
240.0000        60.0000         13.1378         -
250.0000        60.0000         13.7000         -
260.0000        60.0000         14.2622         -
270.0000        60.0000         14.8204         -
280.0000        60.0000         15.3711         -
290.0000        60.0000         15.9111         -
300.0000        60.0000         16.4378         -
310.0000        60.0000         16.9495         -
320.0000        60.0000         17.4456         -
330.0000        60.0000         17.9262         -
340.0000        60.0000         18.3926         -
350.0000        60.0000         18.8469         -
360.0000        60.0000         19.2920         -
370.0000        60.0000         19.7313         -
380.0000        60.0000         20.1687         -
390.0000        60.0000         20.6080         -
400.0000        60.0000         21.0531         -
410.0000        60.0000         21.5074         -
420.0000        60.0000         21.9738         -
430.0000        60.0000         22.4544         -
440.0000        60.0000         22.9505         -
450.0000        60.0000         23.4622         -
460.0000        60.0000         23.9889         -
470.0000        60.0000         24.5289         -
480.0000        60.0000         25.0796         -
490.0000        60.0000         25.6378         -
500.0000        60.0000         26.2000         -
0.0000          70.0000         1.4000          -
10.0000         70.0000         1.9622          -
20.0000         70.0000         2.5204          -
30.0000         70.0000         3.0711          -
40.0000         70.0000         3.6111          -
50.0000         70.0000         4.1378          -
60.0000         70.0000         4.6495          -
70.0000         70.0000         5.1456          -
80.0000         70.0000         5.6262          -
90.0000         70.0000         6.0926          -
100.0000        70.0000         6.5469          -
110.0000        70.0000         6.9920          -
120.0000        70.0000         7.4313          -
130.0000        70.0000         7.8687          -
140.0000        70.0000         8.3080          -
150.0000        70.0000         8.7531          -
160.0000        70.0000         9.2074          -
170.0000        70.0000         9.6738          -
180.0000        70.0000         10.1544         -
190.0000        70.0000         10.6505         -
200.0000        70.0000         11.1622         -
210.0000        70.0000         11.6889         -
220.0000        70.0000         12.2289         -
230.0000        70.0000         12.7796         -
240.0000        70.0000         13.3378         -
250.0000        70.0000         13.9000         -
260.0000        70.0000         14.4622         -
270.0000        70.0000         15.0204         -
280.0000        70.0000         15.5711         -
290.0000        70.0000         16.1111         -
300.0000        70.0000         16.6378         -
310.0000        70.0000         17.1495         -
320.0000        70.0000         17.6456         -
330.0000        70.0000         18.1262         -
340.0000        70.0000         18.5926         -
350.0000        70.0000         19.0469         -
360.0000        70.0000         19.4920         -
370.0000        70.0000         19.9313         -
380.0000        70.0000         20.3687         -
390.0000        70.0000         20.8080         -
400.0000        70.0000         21.2531         -
410.0000        70.0000         21.7074         -
420.0000        70.0000         22.1738         -
430.0000        70.0000         22.6544         -
440.0000        70.0000         23.1505         -
450.0000        70.0000         23.6622         -
460.0000        70.0000         24.1889         -
470.0000        70.0000         24.7289         -
480.0000        70.0000         25.2796         -
490.0000        70.0000         25.8378         -
500.0000        70.0000         26.4000         -
0.0000          80.0000         1.6000          -
10.0000         80.0000         2.1622          -
20.0000         80.0000         2.7204          -
30.0000         80.0000         3.2711          -
40.0000         80.0000         3.8111          -
50.0000         80.0000         4.3378          -
60.0000         80.0000         4.8495          -
70.0000         80.0000         5.3456          -
80.0000         80.0000         5.8262          -
90.0000         80.0000         6.2926          -
100.0000        80.0000         6.7469          -
110.0000        80.0000         7.1920          -
120.0000        80.0000         7.6313          -
130.0000        80.0000         8.0687          -
140.0000        80.0000         8.5080          -
150.0000        80.0000         8.9531          -
160.0000        80.0000         9.4074          -
170.0000        80.0000         9.8738          -
180.0000        80.0000         10.3544         -
190.0000        80.0000         10.8505         -
200.0000        80.0000         11.3622         -
210.0000        80.0000         11.8889         -
220.0000        80.0000         12.4289         -
230.0000        80.0000         12.9796         -
240.0000        80.0000         13.5378         -
250.0000        80.0000         14.1000         -
260.0000        80.0000         14.6622         -
270.0000        80.0000         15.2204         -
280.0000        80.0000         15.7711         -
290.0000        80.0000         16.3111         -
300.0000        80.0000         16.8378         -
310.0000        80.0000         17.3495         -
320.0000        80.0000         17.8456         -
330.0000        80.0000         18.3262         -
340.0000        80.0000         18.7926         -
350.0000        80.0000         19.2469         -
360.0000        80.0000         19.6920         -
370.0000        80.0000         20.1313         -
380.0000        80.0000         20.5687         -
390.0000        80.0000         21.0080         -
400.0000        80.0000         21.4531         -
410.0000        80.0000         21.9074         -
420.0000        80.0000         22.3738         -
430.0000        80.0000         22.8544         -
440.0000        80.0000         23.3505         -
450.0000        80.0000         23.8622         -
460.0000        80.0000         24.3889         -
470.0000        80.0000         24.9289         -
480.0000        80.0000         25.4796         -
490.0000        80.0000         26.0378         -
500.0000        80.0000         26.6000         -
0.0000          90.0000         1.8000          -
10.0000         90.0000         2.3622          -
20.0000         90.0000         2.9204          -
30.0000         90.0000         3.4711          -
40.0000         90.0000         4.0111          -
50.0000         90.0000         4.5378          -
60.0000         90.0000         5.0495          -
70.0000         90.0000         5.5456          -
80.0000         90.0000         6.0262          -
90.0000         90.0000         6.4926          -
100.0000        90.0000         6.9469          -
110.0000        90.0000         7.3920          -
120.0000        90.0000         7.8313          -
130.0000        90.0000         8.2687          -
140.0000        90.0000         8.7080          -
150.0000        90.0000         9.1531          -
160.0000        90.0000         9.6074          -
170.0000        90.0000         10.0738         -
180.0000        90.0000         10.5544         -
190.0000        90.0000         11.0505         -
200.0000        90.0000         11.5622         -
210.0000        90.0000         12.0889         -
220.0000        90.0000         12.6289         -
230.0000        90.0000         13.1796         -
240.0000        90.0000         13.7378         -
250.0000        90.0000         14.3000         -
260.0000        90.0000         14.8622         -
270.0000        90.0000         15.4204         -
280.0000        90.0000         15.9711         -
290.0000        90.0000         16.5111         -
300.0000        90.0000         17.0378         -
310.0000        90.0000         17.5495         -
320.0000        90.0000         18.0456         -
330.0000        90.0000         18.5262         -
340.0000        90.0000         18.9926         -
350.0000        90.0000         19.4469         -
360.0000        90.0000         19.8920         -
370.0000        90.0000         20.3313         -
380.0000        90.0000         20.7687         -
390.0000        90.0000         21.2080         -
400.0000        90.0000         21.6531         -
410.0000        90.0000         22.1074         -
420.0000        90.0000         22.5738         -
430.0000        90.0000         23.0544         -
440.0000        90.0000         23.5505         -
450.0000        90.0000         24.0622         -
460.0000        90.0000         24.5889         -
470.0000        90.0000         25.1289         -
480.0000        90.0000         25.6796         -
490.0000        90.0000         26.2378         -
500.0000        90.0000         26.8000         -
0.0000          100.0000        2.0000          -
10.0000         100.0000        2.5622          -
20.0000         100.0000        3.1204          -
30.0000         100.0000        3.6711          -
40.0000         100.0000        4.2111          -
50.0000         100.0000        4.7378          -
60.0000         100.0000        5.2495          -
70.0000         100.0000        5.7456          -
80.0000         100.0000        6.2262          -
90.0000         100.0000        6.6926          -
100.0000        100.0000        7.1469          -
110.0000        100.0000        7.5920          -
120.0000        100.0000        8.0313          -
130.0000        100.0000        8.4687          -
140.0000        100.0000        8.9080          -
150.0000        100.0000        9.3531          -
160.0000        100.0000        9.8074          -
170.0000        100.0000        10.2738         -
180.0000        100.0000        10.7544         -
190.0000        100.0000        11.2505         -
200.0000        100.0000        11.7622         -
210.0000        100.0000        12.2889         -
220.0000        100.0000        12.8289         -
230.0000        100.0000        13.3796         -
240.0000        100.0000        13.9378         -
250.0000        100.0000        14.5000         -
260.0000        100.0000        15.0622         -
270.0000        100.0000        15.6204         -
280.0000        100.0000        16.1711         -
290.0000        100.0000        16.7111         -
300.0000        100.0000        17.2378         -
310.0000        100.0000        17.7495         -
320.0000        100.0000        18.2456         -
330.0000        100.0000        18.7262         -
340.0000        100.0000        19.1926         -
350.0000        100.0000        19.6469         -
360.0000        100.0000        20.0920         -
370.0000        100.0000        20.5313         -
380.0000        100.0000        20.9687         -
390.0000        100.0000        21.4080         -
400.0000        100.0000        21.8531         -
410.0000        100.0000        22.3074         -
420.0000        100.0000        22.7738         -
430.0000        100.0000        23.2544         -
440.0000        100.0000        23.7505         -
450.0000        100.0000        24.2622         -
460.0000        100.0000        24.7889         -
470.0000        100.0000        25.3289         -
480.0000        100.0000        25.8796         -
490.0000        100.0000        26.4378         -
500.0000        100.0000        27.0000         -
0.0000          110.0000        2.2000          -
10.0000         110.0000        2.7622          -
20.0000         110.0000        3.3204          -
30.0000         110.0000        3.8711          -
40.0000         110.0000        4.4111          -
50.0000         110.0000        4.9378          -
60.0000         110.0000        5.4495          -
70.0000         110.0000        5.9456          -
80.0000         110.0000        6.4262          -
90.0000         110.0000        6.8926          -
100.0000        110.0000        7.3469          -
110.0000        110.0000        7.7920          -
120.0000        110.0000        8.2313          -
130.0000        110.0000        8.6687          -
140.0000        110.0000        9.1080          -
150.0000        110.0000        9.5531          -
160.0000        110.0000        10.0074         -
170.0000        110.0000        10.4738         -
180.0000        110.0000        10.9544         -
190.0000        110.0000        11.4505         -
200.0000        110.0000        11.9622         -
210.0000        110.0000        12.4889         -
220.0000        110.0000        13.0289         -
230.0000        110.0000        13.5796         -
240.0000        110.0000        14.1378         -
250.0000        110.0000        14.7000         -
260.0000        110.0000        15.2622         -
270.0000        110.0000        15.8204         -
280.0000        110.0000        16.3711         -
290.0000        110.0000        16.9111         -
300.0000        110.0000        17.4378         -
310.0000        110.0000        17.9495         -
320.0000        110.0000        18.4456         -
330.0000        110.0000        18.9262         -
340.0000        110.0000        19.3926         -
350.0000        110.0000        19.8469         -
360.0000        110.0000        20.2920         -
370.0000        110.0000        20.7313         -
380.0000        110.0000        21.1687         -
390.0000        110.0000        21.6080         -
400.0000        110.0000        22.0531         -
410.0000        110.0000        22.5074         -
420.0000        110.0000        22.9738         -
430.0000        110.0000        23.4544         -
440.0000        110.0000        23.9505         -
450.0000        110.0000        24.4622         -
460.0000        110.0000        24.9889         -
470.0000        110.0000        25.5289         -
480.0000        110.0000        26.0796         -
490.0000        110.0000        26.6378         -
500.0000        110.0000        27.2000         -
0.0000          120.0000        2.4000          -
10.0000         120.0000        2.9622          -
20.0000         120.0000        3.5204          -
30.0000         120.0000        4.0711          -
40.0000         120.0000        4.6111          -
50.0000         120.0000        5.1378          -
60.0000         120.0000        5.6495          -
70.0000         120.0000        6.1456          -
80.0000         120.0000        6.6262          -
90.0000         120.0000        7.0926          -
100.0000        120.0000        7.5469          -
110.0000        120.0000        7.9920          -
120.0000        120.0000        8.4313          -
130.0000        120.0000        8.8687          -
140.0000        120.0000        9.3080          -
150.0000        120.0000        9.7531          -
160.0000        120.0000        10.2074         -
170.0000        120.0000        10.6738         -
180.0000        120.0000        11.1544         -
190.0000        120.0000        11.6505         -
200.0000        120.0000        12.1622         -
210.0000        120.0000        12.6889         -
220.0000        120.0000        13.2289         -
230.0000        120.0000        13.7796         -
240.0000        120.0000        14.3378         -
250.0000        120.0000        14.9000         -
260.0000        120.0000        15.4622         -
270.0000        120.0000        16.0204         -
280.0000        120.0000        16.5711         -
290.0000        120.0000        17.1111         -
300.0000        120.0000        17.6378         -
310.0000        120.0000        18.1495         -
320.0000        120.0000        18.6456         -
330.0000        120.0000        19.1262         -
340.0000        120.0000        19.5926         -
350.0000        120.0000        20.0469         -
360.0000        120.0000        20.4920         -
370.0000        120.0000        20.9313         -
380.0000        120.0000        21.3687         -
390.0000        120.0000        21.8080         -
400.0000        120.0000        22.2531         -
410.0000        120.0000        22.7074         -
420.0000        120.0000        23.1738         -
430.0000        120.0000        23.6544         -
440.0000        120.0000        24.1505         -
450.0000        120.0000        24.6622         -
460.0000        120.0000        25.1889         -
470.0000        120.0000        25.7289         -
480.0000        120.0000        26.2796         -
490.0000        120.0000        26.8378         -
500.0000        120.0000        27.4000         -
0.0000          130.0000        2.6000          -
10.0000         130.0000        3.1622          -
20.0000         130.0000        3.7204          -
30.0000         130.0000        4.2711          -
40.0000         130.0000        4.8111          -
50.0000         130.0000        5.3378          -
60.0000         130.0000        5.8495          -
70.0000         130.0000        6.3456          -
80.0000         130.0000        6.8262          -
90.0000         130.0000        7.2926          -
100.0000        130.0000        7.7469          -
110.0000        130.0000        8.1920          -
120.0000        130.0000        8.6313          -
130.0000        130.0000        9.0687          -
140.0000        130.0000        9.5080          -
150.0000        130.0000        9.9531          -
160.0000        130.0000        10.4074         -
170.0000        130.0000        10.8738         -
180.0000        130.0000        11.3544         -
190.0000        130.0000        11.8505         -
200.0000        130.0000        12.3622         -
210.0000        130.0000        12.8889         -
220.0000        130.0000        13.4289         -
230.0000        130.0000        13.9796         -
240.0000        130.0000        14.5378         -
250.0000        130.0000        15.1000         -
260.0000        130.0000        15.6622         -
270.0000        130.0000        16.2204         -
280.0000        130.0000        16.7711         -
290.0000        130.0000        17.3111         -
300.0000        130.0000        17.8378         -
310.0000        130.0000        18.3495         -
320.0000        130.0000        18.8456         -
330.0000        130.0000        19.3262         -
340.0000        130.0000        19.7926         -
350.0000        130.0000        20.2469         -
360.0000        130.0000        20.6920         -
370.0000        130.0000        21.1313         -
380.0000        130.0000        21.5687         -
390.0000        130.0000        22.0080         -
400.0000        130.0000        22.4531         -
410.0000        130.0000        22.9074         -
420.0000        130.0000        23.3738         -
430.0000        130.0000        23.8544         -
440.0000        130.0000        24.3505         -
450.0000        130.0000        24.8622         -
460.0000        130.0000        25.3889         -
470.0000        130.0000        25.9289         -
480.0000        130.0000        26.4796         -
490.0000        130.0000        27.0378         -
500.0000        130.0000        27.6000         -
0.0000          140.0000        2.8000          -
10.0000         140.0000        3.3622          -
20.0000         140.0000        3.9204          -
30.0000         140.0000        4.4711          -
40.0000         140.0000        5.0111          -
50.0000         140.0000        5.5378          -
60.0000         140.0000        6.0495          -
70.0000         140.0000        6.5456          -
80.0000         140.0000        7.0262          -
90.0000         140.0000        7.4926          -
100.0000        140.0000        7.9469          -
110.0000        140.0000        8.3920          -
120.0000        140.0000        8.8313          -
130.0000        140.0000        9.2687          -
140.0000        140.0000        9.7080          -
150.0000        140.0000        10.1531         -
160.0000        140.0000        10.6074         -
170.0000        140.0000        11.0738         -
180.0000        140.0000        11.5544         -
190.0000        140.0000        12.0505         -
200.0000        140.0000        12.5622         -
210.0000        140.0000        13.0889         -
220.0000        140.0000        13.6289         -
230.0000        140.0000        14.1796         -
240.0000        140.0000        14.7378         -
250.0000        140.0000        15.3000         -
260.0000        140.0000        15.8622         -
270.0000        140.0000        16.4204         -
280.0000        140.0000        16.9711         -
290.0000        140.0000        17.5111         -
300.0000        140.0000        18.0378         -
310.0000        140.0000        18.5495         -
320.0000        140.0000        19.0456         -
330.0000        140.0000        19.5262         -
340.0000        140.0000        19.9926         -
350.0000        140.0000        20.4469         -
360.0000        140.0000        20.8920         -
370.0000        140.0000        21.3313         -
380.0000        140.0000        21.7687         -
390.0000        140.0000        22.2080         -
400.0000        140.0000        22.6531         -
410.0000        140.0000        23.1074         -
420.0000        140.0000        23.5738         -
430.0000        140.0000        24.0544         -
440.0000        140.0000        24.5505         -
450.0000        140.0000        25.0622         -
460.0000        140.0000        25.5889         -
470.0000        140.0000        26.1289         -
480.0000        140.0000        26.6796         -
490.0000        140.0000        27.2378         -
500.0000        140.0000        27.8000         -
0.0000          150.0000        3.0000          -
10.0000         150.0000        3.5622          -
20.0000         150.0000        4.1204          -
30.0000         150.0000        4.6711          -
40.0000         150.0000        5.2111          -
50.0000         150.0000        5.7378          -
60.0000         150.0000        6.2495          -
70.0000         150.0000        6.7456          -
80.0000         150.0000        7.2262          -
90.0000         150.0000        7.6926          -
100.0000        150.0000        8.1469          -
110.0000        150.0000        8.5920          -
120.0000        150.0000        9.0313          -
130.0000        150.0000        9.4687          -
140.0000        150.0000        9.9080          -
150.0000        150.0000        10.3531         -
160.0000        150.0000        10.8074         -
170.0000        150.0000        11.2738         -
180.0000        150.0000        11.7544         -
190.0000        150.0000        12.2505         -
200.0000        150.0000        12.7622         -
210.0000        150.0000        13.2889         -
220.0000        150.0000        13.8289         -
230.0000        150.0000        14.3796         -
240.0000        150.0000        14.9378         -
250.0000        150.0000        15.5000         -
260.0000        150.0000        16.0622         -
270.0000        150.0000        16.6204         -
280.0000        150.0000        17.1711         -
290.0000        150.0000        17.7111         -
300.0000        150.0000        18.2378         -
310.0000        150.0000        18.7495         -
320.0000        150.0000        19.2456         -
330.0000        150.0000        19.7262         -
340.0000        150.0000        20.1926         -
350.0000        150.0000        20.6469         -
360.0000        150.0000        21.0920         -
370.0000        150.0000        21.5313         -
380.0000        150.0000        21.9687         -
390.0000        150.0000        22.4080         -
400.0000        150.0000        22.8531         -
410.0000        150.0000        23.3074         -
420.0000        150.0000        23.7738         -
430.0000        150.0000        24.2544         -
440.0000        150.0000        24.7505         -
450.0000        150.0000        25.2622         -
460.0000        150.0000        25.7889         -
470.0000        150.0000        26.3289         -
480.0000        150.0000        26.8796         -
490.0000        150.0000        27.4378         -
500.0000        150.0000        28.0000         -
0.0000          160.0000        3.2000          -
10.0000         160.0000        3.7622          -
20.0000         160.0000        4.3204          -
30.0000         160.0000        4.8711          -
40.0000         160.0000        5.4111          -
50.0000         160.0000        5.9378          -
60.0000         160.0000        6.4495          -
70.0000         160.0000        6.9456          -
80.0000         160.0000        7.4262          -
90.0000         160.0000        7.8926          -
100.0000        160.0000        8.3469          -
110.0000        160.0000        8.7920          -
120.0000        160.0000        9.2313          -
130.0000        160.0000        9.6687          -
140.0000        160.0000        10.1080         -
150.0000        160.0000        10.5531         -
160.0000        160.0000        11.0074         -
170.0000        160.0000        11.4738         -
180.0000        160.0000        11.9544         -
190.0000        160.0000        12.4505         -
200.0000        160.0000        12.9622         -
210.0000        160.0000        13.4889         -
220.0000        160.0000        14.0289         -
230.0000        160.0000        14.5796         -
240.0000        160.0000        15.1378         -
250.0000        160.0000        15.7000         -
260.0000        160.0000        16.2622         -
270.0000        160.0000        16.8204         -
280.0000        160.0000        17.3711         -
290.0000        160.0000        17.9111         -
300.0000        160.0000        18.4378         -
310.0000        160.0000        18.9495         -
320.0000        160.0000        19.4456         -
330.0000        160.0000        19.9262         -
340.0000        160.0000        20.3926         -
350.0000        160.0000        20.8469         -
360.0000        160.0000        21.2920         -
370.0000        160.0000        21.7313         -
380.0000        160.0000        22.1687         -
390.0000        160.0000        22.6080         -
400.0000        160.0000        23.0531         -
410.0000        160.0000        23.5074         -
420.0000        160.0000        23.9738         -
430.0000        160.0000        24.4544         -
440.0000        160.0000        24.9505         -
450.0000        160.0000        25.4622         -
460.0000        160.0000        25.9889         -
470.0000        160.0000        26.5289         -
480.0000        160.0000        27.0796         -
490.0000        160.0000        27.6378         -
500.0000        160.0000        28.2000         -
0.0000          170.0000        3.4000          -
10.0000         170.0000        3.9622          -
20.0000         170.0000        4.5204          -
30.0000         170.0000        5.0711          -
40.0000         170.0000        5.6111          -
50.0000         170.0000        6.1378          -
60.0000         170.0000        6.6495          -
70.0000         170.0000        7.1456          -
80.0000         170.0000        7.6262          -
90.0000         170.0000        8.0926          -
100.0000        170.0000        8.5469          -
110.0000        170.0000        8.9920          -
120.0000        170.0000        9.4313          -
130.0000        170.0000        9.8687          -
140.0000        170.0000        10.3080         -
150.0000        170.0000        10.7531         -
160.0000        170.0000        11.2074         -
170.0000        170.0000        11.6738         -
180.0000        170.0000        12.1544         -
190.0000        170.0000        12.6505         -
200.0000        170.0000        13.1622         -
210.0000        170.0000        13.6889         -
220.0000        170.0000        14.2289         -
230.0000        170.0000        14.7796         -
240.0000        170.0000        15.3378         -
250.0000        170.0000        15.9000         -
260.0000        170.0000        16.4622         -
270.0000        170.0000        17.0204         -
280.0000        170.0000        17.5711         -
290.0000        170.0000        18.1111         -
300.0000        170.0000        18.6378         -
310.0000        170.0000        19.1495         -
320.0000        170.0000        19.6456         -
330.0000        170.0000        20.1262         -
340.0000        170.0000        20.5926         -
350.0000        170.0000        21.0469         -
360.0000        170.0000        21.4920         -
370.0000        170.0000        21.9313         -
380.0000        170.0000        22.3687         -
390.0000        170.0000        22.8080         -
400.0000        170.0000        23.2531         -
410.0000        170.0000        23.7074         -
420.0000        170.0000        24.1738         -
430.0000        170.0000        24.6544         -
440.0000        170.0000        25.1505         -
450.0000        170.0000        25.6622         -
460.0000        170.0000        26.1889         -
470.0000        170.0000        26.7289         -
480.0000        170.0000        27.2796         -
490.0000        170.0000        27.8378         -
500.0000        170.0000        28.4000         -
0.0000          180.0000        3.6000          -
10.0000         180.0000        4.1622          -
20.0000         180.0000        4.7204          -
30.0000         180.0000        5.2711          -
40.0000         180.0000        5.8111          -
50.0000         180.0000        6.3378          -
60.0000         180.0000        6.8495          -
70.0000         180.0000        7.3456          -
80.0000         180.0000        7.8262          -
90.0000         180.0000        8.2926          -
100.0000        180.0000        8.7469          -
110.0000        180.0000        9.1920          -
120.0000        180.0000        9.6313          -
130.0000        180.0000        10.0687         -
140.0000        180.0000        10.5080         -
150.0000        180.0000        10.9531         -
160.0000        180.0000        11.4074         -
170.0000        180.0000        11.8738         -
180.0000        180.0000        12.3544         -
190.0000        180.0000        12.8505         -
200.0000        180.0000        13.3622         -
210.0000        180.0000        13.8889         -
220.0000        180.0000        14.4289         -
230.0000        180.0000        14.9796         -
240.0000        180.0000        15.5378         -
250.0000        180.0000        16.1000         -
260.0000        180.0000        16.6622         -
270.0000        180.0000        17.2204         -
280.0000        180.0000        17.7711         -
290.0000        180.0000        18.3111         -
300.0000        180.0000        18.8378         -
310.0000        180.0000        19.3495         -
320.0000        180.0000        19.8456         -
330.0000        180.0000        20.3262         -
340.0000        180.0000        20.7926         -
350.0000        180.0000        21.2469         -
360.0000        180.0000        21.6920         -
370.0000        180.0000        22.1313         -
380.0000        180.0000        22.5687         -
390.0000        180.0000        23.0080         -
400.0000        180.0000        23.4531         -
410.0000        180.0000        23.9074         -
420.0000        180.0000        24.3738         -
430.0000        180.0000        24.8544         -
440.0000        180.0000        25.3505         -
450.0000        180.0000        25.8622         -
460.0000        180.0000        26.3889         -
470.0000        180.0000        26.9289         -
480.0000        180.0000        27.4796         -
490.0000        180.0000        28.0378         -
500.0000        180.0000        28.6000         -
0.0000          190.0000        3.8000          -
10.0000         190.0000        4.3622          -
20.0000         190.0000        4.9204          -
30.0000         190.0000        5.4711          -
40.0000         190.0000        6.0111          -
50.0000         190.0000        6.5378          -
60.0000         190.0000        7.0495          -
70.0000         190.0000        7.5456          -
80.0000         190.0000        8.0262          -
90.0000         190.0000        8.4926          -
100.0000        190.0000        8.9469          -
110.0000        190.0000        9.3920          -
120.0000        190.0000        9.8313          -
130.0000        190.0000        10.2687         -
140.0000        190.0000        10.7080         -
150.0000        190.0000        11.1531         -
160.0000        190.0000        11.6074         -
170.0000        190.0000        12.0738         -
180.0000        190.0000        12.5544         -
190.0000        190.0000        13.0505         -
200.0000        190.0000        13.5622         -
210.0000        190.0000        14.0889         -
220.0000        190.0000        14.6289         -
230.0000        190.0000        15.1796         -
240.0000        190.0000        15.7378         -
250.0000        190.0000        16.3000         -
260.0000        190.0000        16.8622         -
270.0000        190.0000        17.4204         -
280.0000        190.0000        17.9711         -
290.0000        190.0000        18.5111         -
300.0000        190.0000        19.0378         -
310.0000        190.0000        19.5495         -
320.0000        190.0000        20.0456         -
330.0000        190.0000        20.5262         -
340.0000        190.0000        20.9926         -
350.0000        190.0000        21.4469         -
360.0000        190.0000        21.8920         -
370.0000        190.0000        22.3313         -
380.0000        190.0000        22.7687         -
390.0000        190.0000        23.2080         -
400.0000        190.0000        23.6531         -
410.0000        190.0000        24.1074         -
420.0000        190.0000        24.5738         -
430.0000        190.0000        25.0544         -
440.0000        190.0000        25.5505         -
450.0000        190.0000        26.0622         -
460.0000        190.0000        26.5889         -
470.0000        190.0000        27.1289         -
480.0000        190.0000        27.6796         -
490.0000        190.0000        28.2378         -
500.0000        190.0000        28.8000         -
0.0000          200.0000        4.0000          -
10.0000         200.0000        4.5622          -
20.0000         200.0000        5.1204          -
30.0000         200.0000        5.6711          -
40.0000         200.0000        6.2111          -
50.0000         200.0000        6.7378          -
60.0000         200.0000        7.2495          -
70.0000         200.0000        7.7456          -
80.0000         200.0000        8.2262          -
90.0000         200.0000        8.6926          -
100.0000        200.0000        9.1469          -
110.0000        200.0000        9.5920          -
120.0000        200.0000        10.0313         -
130.0000        200.0000        10.4687         -
140.0000        200.0000        10.9080         -
150.0000        200.0000        11.3531         -
160.0000        200.0000        11.8074         -
170.0000        200.0000        12.2738         -
180.0000        200.0000        12.7544         -
190.0000        200.0000        13.2505         -
200.0000        200.0000        13.7622         -
210.0000        200.0000        14.2889         -
220.0000        200.0000        14.8289         -
230.0000        200.0000        15.3796         -
240.0000        200.0000        15.9378         -
250.0000        200.0000        16.5000         -
260.0000        200.0000        17.0622         -
270.0000        200.0000        17.6204         -
280.0000        200.0000        18.1711         -
290.0000        200.0000        18.7111         -
300.0000        200.0000        19.2378         -
310.0000        200.0000        19.7495         -
320.0000        200.0000        20.2456         -
330.0000        200.0000        20.7262         -
340.0000        200.0000        21.1926         -
350.0000        200.0000        21.6469         -
360.0000        200.0000        22.0920         -
370.0000        200.0000        22.5313         -
380.0000        200.0000        22.9687         -
390.0000        200.0000        23.4080         -
400.0000        200.0000        23.8531         -
410.0000        200.0000        24.3074         -
420.0000        200.0000        24.7738         -
430.0000        200.0000        25.2544         -
440.0000        200.0000        25.7505         -
450.0000        200.0000        26.2622         -
460.0000        200.0000        26.7889         -
470.0000        200.0000        27.3289         -
480.0000        200.0000        27.8796         -
490.0000        200.0000        28.4378         -
500.0000        200.0000        29.0000         -
0.0000          210.0000        4.2000          -
10.0000         210.0000        4.7622          -
20.0000         210.0000        5.3204          -
30.0000         210.0000        5.8711          -
40.0000         210.0000        6.4111          -
50.0000         210.0000        6.9378          -
60.0000         210.0000        7.4495          -
70.0000         210.0000        7.9456          -
80.0000         210.0000        8.4262          -
90.0000         210.0000        8.8926          -
100.0000        210.0000        9.3469          -
110.0000        210.0000        9.7920          -
120.0000        210.0000        10.2313         -
130.0000        210.0000        10.6687         -
140.0000        210.0000        11.1080         -
150.0000        210.0000        11.5531         -
160.0000        210.0000        12.0074         -
170.0000        210.0000        12.4738         -
180.0000        210.0000        12.9544         -
190.0000        210.0000        13.4505         -
200.0000        210.0000        13.9622         -
210.0000        210.0000        14.4889         -
220.0000        210.0000        15.0289         -
230.0000        210.0000        15.5796         -
240.0000        210.0000        16.1378         -
250.0000        210.0000        16.7000         -
260.0000        210.0000        17.2622         -
270.0000        210.0000        17.8204         -
280.0000        210.0000        18.3711         -
290.0000        210.0000        18.9111         -
300.0000        210.0000        19.4378         -
310.0000        210.0000        19.9495         -
320.0000        210.0000        20.4456         -
330.0000        210.0000        20.9262         -
340.0000        210.0000        21.3926         -
350.0000        210.0000        21.8469         -
360.0000        210.0000        22.2920         -
370.0000        210.0000        22.7313         -
380.0000        210.0000        23.1687         -
390.0000        210.0000        23.6080         -
400.0000        210.0000        24.0531         -
410.0000        210.0000        24.5074         -
420.0000        210.0000        24.9738         -
430.0000        210.0000        25.4544         -
440.0000        210.0000        25.9505         -
450.0000        210.0000        26.4622         -
460.0000        210.0000        26.9889         -
470.0000        210.0000        27.5289         -
480.0000        210.0000        28.0796         -
490.0000        210.0000        28.6378         -
500.0000        210.0000        29.2000         -
0.0000          220.0000        4.4000          -
10.0000         220.0000        4.9622          -
20.0000         220.0000        5.5204          -
30.0000         220.0000        6.0711          -
40.0000         220.0000        6.6111          -
50.0000         220.0000        7.1378          -
60.0000         220.0000        7.6495          -
70.0000         220.0000        8.1456          -
80.0000         220.0000        8.6262          -
90.0000         220.0000        9.0926          -
100.0000        220.0000        9.5469          -
110.0000        220.0000        9.9920          -
120.0000        220.0000        10.4313         -
130.0000        220.0000        10.8687         -
140.0000        220.0000        11.3080         -
150.0000        220.0000        11.7531         -
160.0000        220.0000        12.2074         -
170.0000        220.0000        12.6738         -
180.0000        220.0000        13.1544         -
190.0000        220.0000        13.6505         -
200.0000        220.0000        14.1622         -
210.0000        220.0000        14.6889         -
220.0000        220.0000        15.2289         -
230.0000        220.0000        15.7796         -
240.0000        220.0000        16.3378         -
250.0000        220.0000        16.9000         -
260.0000        220.0000        17.4622         -
270.0000        220.0000        18.0204         -
280.0000        220.0000        18.5711         -
290.0000        220.0000        19.1111         -
300.0000        220.0000        19.6378         -
310.0000        220.0000        20.1495         -
320.0000        220.0000        20.6456         -
330.0000        220.0000        21.1262         -
340.0000        220.0000        21.5926         -
350.0000        220.0000        22.0469         -
360.0000        220.0000        22.4920         -
370.0000        220.0000        22.9313         -
380.0000        220.0000        23.3687         -
390.0000        220.0000        23.8080         -
400.0000        220.0000        24.2531         -
410.0000        220.0000        24.7074         -
420.0000        220.0000        25.1738         -
430.0000        220.0000        25.6544         -
440.0000        220.0000        26.1505         -
450.0000        220.0000        26.6622         -
460.0000        220.0000        27.1889         -
470.0000        220.0000        27.7289         -
480.0000        220.0000        28.2796         -
490.0000        220.0000        28.8378         -
500.0000        220.0000        29.4000         -
0.0000          230.0000        4.6000          -
10.0000         230.0000        5.1622          -
20.0000         230.0000        5.7204          -
30.0000         230.0000        6.2711          -
40.0000         230.0000        6.8111          -
50.0000         230.0000        7.3378          -
60.0000         230.0000        7.8495          -
70.0000         230.0000        8.3456          -
80.0000         230.0000        8.8262          -
90.0000         230.0000        9.2926          -
100.0000        230.0000        9.7469          -
110.0000        230.0000        10.1920         -
120.0000        230.0000        10.6313         -
130.0000        230.0000        11.0687         -
140.0000        230.0000        11.5080         -
150.0000        230.0000        11.9531         -
160.0000        230.0000        12.4074         -
170.0000        230.0000        12.8738         -
180.0000        230.0000        13.3544         -
190.0000        230.0000        13.8505         -
200.0000        230.0000        14.3622         -
210.0000        230.0000        14.8889         -
220.0000        230.0000        15.4289         -
230.0000        230.0000        15.9796         -
240.0000        230.0000        16.5378         -
250.0000        230.0000        17.1000         -
260.0000        230.0000        17.6622         -
270.0000        230.0000        18.2204         -
280.0000        230.0000        18.7711         -
290.0000        230.0000        19.3111         -
300.0000        230.0000        19.8378         -
310.0000        230.0000        20.3495         -
320.0000        230.0000        20.8456         -
330.0000        230.0000        21.3262         -
340.0000        230.0000        21.7926         -
350.0000        230.0000        22.2469         -
360.0000        230.0000        22.6920         -
370.0000        230.0000        23.1313         -
380.0000        230.0000        23.5687         -
390.0000        230.0000        24.0080         -
400.0000        230.0000        24.4531         -
410.0000        230.0000        24.9074         -
420.0000        230.0000        25.3738         -
430.0000        230.0000        25.8544         -
440.0000        230.0000        26.3505         -
450.0000        230.0000        26.8622         -
460.0000        230.0000        27.3889         -
470.0000        230.0000        27.9289         -
480.0000        230.0000        28.4796         -
490.0000        230.0000        29.0378         -
500.0000        230.0000        29.6000         -
0.0000          240.0000        4.8000          -
10.0000         240.0000        5.3622          -
20.0000         240.0000        5.9204          -
30.0000         240.0000        6.4711          -
40.0000         240.0000        7.0111          -
50.0000         240.0000        7.5378          -
60.0000         240.0000        8.0495          -
70.0000         240.0000        8.5456          -
80.0000         240.0000        9.0262          -
90.0000         240.0000        9.4926          -
100.0000        240.0000        9.9469          -
110.0000        240.0000        10.3920         -
120.0000        240.0000        10.8313         -
130.0000        240.0000        11.2687         -
140.0000        240.0000        11.7080         -
150.0000        240.0000        12.1531         -
160.0000        240.0000        12.6074         -
170.0000        240.0000        13.0738         -
180.0000        240.0000        13.5544         -
190.0000        240.0000        14.0505         -
200.0000        240.0000        14.5622         -
210.0000        240.0000        15.0889         -
220.0000        240.0000        15.6289         -
230.0000        240.0000        16.1796         -
240.0000        240.0000        16.7378         -
250.0000        240.0000        17.3000         -
260.0000        240.0000        17.8622         -
270.0000        240.0000        18.4204         -
280.0000        240.0000        18.9711         -
290.0000        240.0000        19.5111         -
300.0000        240.0000        20.0378         -
310.0000        240.0000        20.5495         -
320.0000        240.0000        21.0456         -
330.0000        240.0000        21.5262         -
340.0000        240.0000        21.9926         -
350.0000        240.0000        22.4469         -
360.0000        240.0000        22.8920         -
370.0000        240.0000        23.3313         -
380.0000        240.0000        23.7687         -
390.0000        240.0000        24.2080         -
400.0000        240.0000        24.6531         -
410.0000        240.0000        25.1074         -
420.0000        240.0000        25.5738         -
430.0000        240.0000        26.0544         -
440.0000        240.0000        26.5505         -
450.0000        240.0000        27.0622         -
460.0000        240.0000        27.5889         -
470.0000        240.0000        28.1289         -
480.0000        240.0000        28.6796         -
490.0000        240.0000        29.2378         -
500.0000        240.0000        29.8000         -
0.0000          250.0000        5.0000          -
10.0000         250.0000        5.5622          -
20.0000         250.0000        6.1204          -
30.0000         250.0000        6.6711          -
40.0000         250.0000        7.2111          -
50.0000         250.0000        7.7378          -
60.0000         250.0000        8.2495          -
70.0000         250.0000        8.7456          -
80.0000         250.0000        9.2262          -
90.0000         250.0000        9.6926          -
100.0000        250.0000        10.1469         -
110.0000        250.0000        10.5920         -
120.0000        250.0000        11.0313         -
130.0000        250.0000        11.4687         -
140.0000        250.0000        11.9080         -
150.0000        250.0000        12.3531         -
160.0000        250.0000        12.8074         -
170.0000        250.0000        13.2738         -
180.0000        250.0000        13.7544         -
190.0000        250.0000        14.2505         -
200.0000        250.0000        14.7622         -
210.0000        250.0000        15.2889         -
220.0000        250.0000        15.8289         -
230.0000        250.0000        16.3796         -
240.0000        250.0000        16.9378         -
250.0000        250.0000        17.5000         -
260.0000        250.0000        18.0622         -
270.0000        250.0000        18.6204         -
280.0000        250.0000        19.1711         -
290.0000        250.0000        19.7111         -
300.0000        250.0000        20.2378         -
310.0000        250.0000        20.7495         -
320.0000        250.0000        21.2456         -
330.0000        250.0000        21.7262         -
340.0000        250.0000        22.1926         -
350.0000        250.0000        22.6469         -
360.0000        250.0000        23.0920         -
370.0000        250.0000        23.5313         -
380.0000        250.0000        23.9687         -
390.0000        250.0000        24.4080         -
400.0000        250.0000        24.8531         -
410.0000        250.0000        25.3074         -
420.0000        250.0000        25.7738         -
430.0000        250.0000        26.2544         -
440.0000        250.0000        26.7505         -
450.0000        250.0000        27.2622         -
460.0000        250.0000        27.7889         -
470.0000        250.0000        28.3289         -
480.0000        250.0000        28.8796         -
490.0000        250.0000        29.4378         -
500.0000        250.0000        30.0000         -
0.0000          260.0000        5.2000          -
10.0000         260.0000        5.7622          -
20.0000         260.0000        6.3204          -
30.0000         260.0000        6.8711          -
40.0000         260.0000        7.4111          -
50.0000         260.0000        7.9378          -
60.0000         260.0000        8.4495          -
70.0000         260.0000        8.9456          -
80.0000         260.0000        9.4262          -
90.0000         260.0000        9.8926          -
100.0000        260.0000        10.3469         -
110.0000        260.0000        10.7920         -
120.0000        260.0000        11.2313         -
130.0000        260.0000        11.6687         -
140.0000        260.0000        12.1080         -
150.0000        260.0000        12.5531         -
160.0000        260.0000        13.0074         -
170.0000        260.0000        13.4738         -
180.0000        260.0000        13.9544         -
190.0000        260.0000        14.4505         -
200.0000        260.0000        14.9622         -
210.0000        260.0000        15.4889         -
220.0000        260.0000        16.0289         -
230.0000        260.0000        16.5796         -
240.0000        260.0000        17.1378         -
250.0000        260.0000        17.7000         -
260.0000        260.0000        18.2622         -
270.0000        260.0000        18.8204         -
280.0000        260.0000        19.3711         -
290.0000        260.0000        19.9111         -
300.0000        260.0000        20.4378         -
310.0000        260.0000        20.9495         -
320.0000        260.0000        21.4456         -
330.0000        260.0000        21.9262         -
340.0000        260.0000        22.3926         -
350.0000        260.0000        22.8469         -
360.0000        260.0000        23.2920         -
370.0000        260.0000        23.7313         -
380.0000        260.0000        24.1687         -
390.0000        260.0000        24.6080         -
400.0000        260.0000        25.0531         -
410.0000        260.0000        25.5074         -
420.0000        260.0000        25.9738         -
430.0000        260.0000        26.4544         -
440.0000        260.0000        26.9505         -
450.0000        260.0000        27.4622         -
460.0000        260.0000        27.9889         -
470.0000        260.0000        28.5289         -
480.0000        260.0000        29.0796         -
490.0000        260.0000        29.6378         -
500.0000        260.0000        30.2000         -
0.0000          270.0000        5.4000          -
10.0000         270.0000        5.9622          -
20.0000         270.0000        6.5204          -
30.0000         270.0000        7.0711          -
40.0000         270.0000        7.6111          -
50.0000         270.0000        8.1378          -
60.0000         270.0000        8.6495          -
70.0000         270.0000        9.1456          -
80.0000         270.0000        9.6262          -
90.0000         270.0000        10.0926         -
100.0000        270.0000        10.5469         -
110.0000        270.0000        10.9920         -
120.0000        270.0000        11.4313         -
130.0000        270.0000        11.8687         -
140.0000        270.0000        12.3080         -
150.0000        270.0000        12.7531         -
160.0000        270.0000        13.2074         -
170.0000        270.0000        13.6738         -
180.0000        270.0000        14.1544         -
190.0000        270.0000        14.6505         -
200.0000        270.0000        15.1622         -
210.0000        270.0000        15.6889         -
220.0000        270.0000        16.2289         -
230.0000        270.0000        16.7796         -
240.0000        270.0000        17.3378         -
250.0000        270.0000        17.9000         -
260.0000        270.0000        18.4622         -
270.0000        270.0000        19.0204         -
280.0000        270.0000        19.5711         -
290.0000        270.0000        20.1111         -
300.0000        270.0000        20.6378         -
310.0000        270.0000        21.1495         -
320.0000        270.0000        21.6456         -
330.0000        270.0000        22.1262         -
340.0000        270.0000        22.5926         -
350.0000        270.0000        23.0469         -
360.0000        270.0000        23.4920         -
370.0000        270.0000        23.9313         -
380.0000        270.0000        24.3687         -
390.0000        270.0000        24.8080         -
400.0000        270.0000        25.2531         -
410.0000        270.0000        25.7074         -
420.0000        270.0000        26.1738         -
430.0000        270.0000        26.6544         -
440.0000        270.0000        27.1505         -
450.0000        270.0000        27.6622         -
460.0000        270.0000        28.1889         -
470.0000        270.0000        28.7289         -
480.0000        270.0000        29.2796         -
490.0000        270.0000        29.8378         -
500.0000        270.0000        30.4000         -
0.0000          280.0000        5.6000          -
10.0000         280.0000        6.1622          -
20.0000         280.0000        6.7204          -
30.0000         280.0000        7.2711          -
40.0000         280.0000        7.8111          -
50.0000         280.0000        8.3378          -
60.0000         280.0000        8.8495          -
70.0000         280.0000        9.3456          -
80.0000         280.0000        9.8262          -
90.0000         280.0000        10.2926         -
100.0000        280.0000        10.7469         -
110.0000        280.0000        11.1920         -
120.0000        280.0000        11.6313         -
130.0000        280.0000        12.0687         -
140.0000        280.0000        12.5080         -
150.0000        280.0000        12.9531         -
160.0000        280.0000        13.4074         -
170.0000        280.0000        13.8738         -
180.0000        280.0000        14.3544         -
190.0000        280.0000        14.8505         -
200.0000        280.0000        15.3622         -
210.0000        280.0000        15.8889         -
220.0000        280.0000        16.4289         -
230.0000        280.0000        16.9796         -
240.0000        280.0000        17.5378         -
250.0000        280.0000        18.1000         -
260.0000        280.0000        18.6622         -
270.0000        280.0000        19.2204         -
280.0000        280.0000        19.7711         -
290.0000        280.0000        20.3111         -
300.0000        280.0000        20.8378         -
310.0000        280.0000        21.3495         -
320.0000        280.0000        21.8456         -
330.0000        280.0000        22.3262         -
340.0000        280.0000        22.7926         -
350.0000        280.0000        23.2469         -
360.0000        280.0000        23.6920         -
370.0000        280.0000        24.1313         -
380.0000        280.0000        24.5687         -
390.0000        280.0000        25.0080         -
400.0000        280.0000        25.4531         -
410.0000        280.0000        25.9074         -
420.0000        280.0000        26.3738         -
430.0000        280.0000        26.8544         -
440.0000        280.0000        27.3505         -
450.0000        280.0000        27.8622         -
460.0000        280.0000        28.3889         -
470.0000        280.0000        28.9289         -
480.0000        280.0000        29.4796         -
490.0000        280.0000        30.0378         -
500.0000        280.0000        30.6000         -
0.0000          290.0000        5.8000          -
10.0000         290.0000        6.3622          -
20.0000         290.0000        6.9204          -
30.0000         290.0000        7.4711          -
40.0000         290.0000        8.0111          -
50.0000         290.0000        8.5378          -
60.0000         290.0000        9.0495          -
70.0000         290.0000        9.5456          -
80.0000         290.0000        10.0262         -
90.0000         290.0000        10.4926         -
100.0000        290.0000        10.9469         -
110.0000        290.0000        11.3920         -
120.0000        290.0000        11.8313         -
130.0000        290.0000        12.2687         -
140.0000        290.0000        12.7080         -
150.0000        290.0000        13.1531         -
160.0000        290.0000        13.6074         -
170.0000        290.0000        14.0738         -
180.0000        290.0000        14.5544         -
190.0000        290.0000        15.0505         -
200.0000        290.0000        15.5622         -
210.0000        290.0000        16.0889         -
220.0000        290.0000        16.6289         -
230.0000        290.0000        17.1796         -
240.0000        290.0000        17.7378         -
250.0000        290.0000        18.3000         -
260.0000        290.0000        18.8622         -
270.0000        290.0000        19.4204         -
280.0000        290.0000        19.9711         -
290.0000        290.0000        20.5111         -
300.0000        290.0000        21.0378         -
310.0000        290.0000        21.5495         -
320.0000        290.0000        22.0456         -
330.0000        290.0000        22.5262         -
340.0000        290.0000        22.9926         -
350.0000        290.0000        23.4469         -
360.0000        290.0000        23.8920         -
370.0000        290.0000        24.3313         -
380.0000        290.0000        24.7687         -
390.0000        290.0000        25.2080         -
400.0000        290.0000        25.6531         -
410.0000        290.0000        26.1074         -
420.0000        290.0000        26.5738         -
430.0000        290.0000        27.0544         -
440.0000        290.0000        27.5505         -
450.0000        290.0000        28.0622         -
460.0000        290.0000        28.5889         -
470.0000        290.0000        29.1289         -
480.0000        290.0000        29.6796         -
490.0000        290.0000        30.2378         -
500.0000        290.0000        30.8000         -
0.0000          300.0000        6.0000          -
10.0000         300.0000        6.5622          -
20.0000         300.0000        7.1204          -
30.0000         300.0000        7.6711          -
40.0000         300.0000        8.2111          -
50.0000         300.0000        8.7378          -
60.0000         300.0000        9.2495          -
70.0000         300.0000        9.7456          -
80.0000         300.0000        10.2262         -
90.0000         300.0000        10.6926         -
100.0000        300.0000        11.1469         -
110.0000        300.0000        11.5920         -
120.0000        300.0000        12.0313         -
130.0000        300.0000        12.4687         -
140.0000        300.0000        12.9080         -
150.0000        300.0000        13.3531         -
160.0000        300.0000        13.8074         -
170.0000        300.0000        14.2738         -
180.0000        300.0000        14.7544         -
190.0000        300.0000        15.2505         -
200.0000        300.0000        15.7622         -
210.0000        300.0000        16.2889         -
220.0000        300.0000        16.8289         -
230.0000        300.0000        17.3796         -
240.0000        300.0000        17.9378         -
250.0000        300.0000        18.5000         -
260.0000        300.0000        19.0622         -
270.0000        300.0000        19.6204         -
280.0000        300.0000        20.1711         -
290.0000        300.0000        20.7111         -
300.0000        300.0000        21.2378         -
310.0000        300.0000        21.7495         -
320.0000        300.0000        22.2456         -
330.0000        300.0000        22.7262         -
340.0000        300.0000        23.1926         -
350.0000        300.0000        23.6469         -
360.0000        300.0000        24.0920         -
370.0000        300.0000        24.5313         -
380.0000        300.0000        24.9687         -
390.0000        300.0000        25.4080         -
400.0000        300.0000        25.8531         -
410.0000        300.0000        26.3074         -
420.0000        300.0000        26.7738         -
430.0000        300.0000        27.2544         -
440.0000        300.0000        27.7505         -
450.0000        300.0000        28.2622         -
460.0000        300.0000        28.7889         -
470.0000        300.0000        29.3289         -
480.0000        300.0000        29.8796         -
490.0000        300.0000        30.4378         -
500.0000        300.0000        31.0000         -
0.0000          310.0000        6.2000          -
10.0000         310.0000        6.7622          -
20.0000         310.0000        7.3204          -
30.0000         310.0000        7.8711          -
40.0000         310.0000        8.4111          -
50.0000         310.0000        8.9378          -
60.0000         310.0000        9.4495          -
70.0000         310.0000        9.9456          -
80.0000         310.0000        10.4262         -
90.0000         310.0000        10.8926         -
100.0000        310.0000        11.3469         -
110.0000        310.0000        11.7920         -
120.0000        310.0000        12.2313         -
130.0000        310.0000        12.6687         -
140.0000        310.0000        13.1080         -
150.0000        310.0000        13.5531         -
160.0000        310.0000        14.0074         -
170.0000        310.0000        14.4738         -
180.0000        310.0000        14.9544         -
190.0000        310.0000        15.4505         -
200.0000        310.0000        15.9622         -
210.0000        310.0000        16.4889         -
220.0000        310.0000        17.0289         -
230.0000        310.0000        17.5796         -
240.0000        310.0000        18.1378         -
250.0000        310.0000        18.7000         -
260.0000        310.0000        19.2622         -
270.0000        310.0000        19.8204         -
280.0000        310.0000        20.3711         -
290.0000        310.0000        20.9111         -
300.0000        310.0000        21.4378         -
310.0000        310.0000        21.9495         -
320.0000        310.0000        22.4456         -
330.0000        310.0000        22.9262         -
340.0000        310.0000        23.3926         -
350.0000        310.0000        23.8469         -
360.0000        310.0000        24.2920         -
370.0000        310.0000        24.7313         -
380.0000        310.0000        25.1687         -
390.0000        310.0000        25.6080         -
400.0000        310.0000        26.0531         -
410.0000        310.0000        26.5074         -
420.0000        310.0000        26.9738         -
430.0000        310.0000        27.4544         -
440.0000        310.0000        27.9505         -
450.0000        310.0000        28.4622         -
460.0000        310.0000        28.9889         -
470.0000        310.0000        29.5289         -
480.0000        310.0000        30.0796         -
490.0000        310.0000        30.6378         -
500.0000        310.0000        31.2000         -
0.0000          320.0000        6.4000          -
10.0000         320.0000        6.9622          -
20.0000         320.0000        7.5204          -
30.0000         320.0000        8.0711          -
40.0000         320.0000        8.6111          -
50.0000         320.0000        9.1378          -
60.0000         320.0000        9.6495          -
70.0000         320.0000        10.1456         -
80.0000         320.0000        10.6262         -
90.0000         320.0000        11.0926         -
100.0000        320.0000        11.5469         -
110.0000        320.0000        11.9920         -
120.0000        320.0000        12.4313         -
130.0000        320.0000        12.8687         -
140.0000        320.0000        13.3080         -
150.0000        320.0000        13.7531         -
160.0000        320.0000        14.2074         -
170.0000        320.0000        14.6738         -
180.0000        320.0000        15.1544         -
190.0000        320.0000        15.6505         -
200.0000        320.0000        16.1622         -
210.0000        320.0000        16.6889         -
220.0000        320.0000        17.2289         -
230.0000        320.0000        17.7796         -
240.0000        320.0000        18.3378         -
250.0000        320.0000        18.9000         -
260.0000        320.0000        19.4622         -
270.0000        320.0000        20.0204         -
280.0000        320.0000        20.5711         -
290.0000        320.0000        21.1111         -
300.0000        320.0000        21.6378         -
310.0000        320.0000        22.1495         -
320.0000        320.0000        22.6456         -
330.0000        320.0000        23.1262         -
340.0000        320.0000        23.5926         -
350.0000        320.0000        24.0469         -
360.0000        320.0000        24.4920         -
370.0000        320.0000        24.9313         -
380.0000        320.0000        25.3687         -
390.0000        320.0000        25.8080         -
400.0000        320.0000        26.2531         -
410.0000        320.0000        26.7074         -
420.0000        320.0000        27.1738         -
430.0000        320.0000        27.6544         -
440.0000        320.0000        28.1505         -
450.0000        320.0000        28.6622         -
460.0000        320.0000        29.1889         -
470.0000        320.0000        29.7289         -
480.0000        320.0000        30.2796         -
490.0000        320.0000        30.8378         -
500.0000        320.0000        31.4000         -
0.0000          330.0000        6.6000          -
10.0000         330.0000        7.1622          -
20.0000         330.0000        7.7204          -
30.0000         330.0000        8.2711          -
40.0000         330.0000        8.8111          -
50.0000         330.0000        9.3378          -
60.0000         330.0000        9.8495          -
70.0000         330.0000        10.3456         -
80.0000         330.0000        10.8262         -
90.0000         330.0000        11.2926         -
100.0000        330.0000        11.7469         -
110.0000        330.0000        12.1920         -
120.0000        330.0000        12.6313         -
130.0000        330.0000        13.0687         -
140.0000        330.0000        13.5080         -
150.0000        330.0000        13.9531         -
160.0000        330.0000        14.4074         -
170.0000        330.0000        14.8738         -
180.0000        330.0000        15.3544         -
190.0000        330.0000        15.8505         -
200.0000        330.0000        16.3622         -
210.0000        330.0000        16.8889         -
220.0000        330.0000        17.4289         -
230.0000        330.0000        17.9796         -
240.0000        330.0000        18.5378         -
250.0000        330.0000        19.1000         -
260.0000        330.0000        19.6622         -
270.0000        330.0000        20.2204         -
280.0000        330.0000        20.7711         -
290.0000        330.0000        21.3111         -
300.0000        330.0000        21.8378         -
310.0000        330.0000        22.3495         -
320.0000        330.0000        22.8456         -
330.0000        330.0000        23.3262         -
340.0000        330.0000        23.7926         -
350.0000        330.0000        24.2469         -
360.0000        330.0000        24.6920         -
370.0000        330.0000        25.1313         -
380.0000        330.0000        25.5687         -
390.0000        330.0000        26.0080         -
400.0000        330.0000        26.4531         -
410.0000        330.0000        26.9074         -
420.0000        330.0000        27.3738         -
430.0000        330.0000        27.8544         -
440.0000        330.0000        28.3505         -
450.0000        330.0000        28.8622         -
460.0000        330.0000        29.3889         -
470.0000        330.0000        29.9289         -
480.0000        330.0000        30.4796         -
490.0000        330.0000        31.0378         -
500.0000        330.0000        31.6000         -
0.0000          340.0000        6.8000          -
10.0000         340.0000        7.3622          -
20.0000         340.0000        7.9204          -
30.0000         340.0000        8.4711          -
40.0000         340.0000        9.0111          -
50.0000         340.0000        9.5378          -
60.0000         340.0000        10.0495         -
70.0000         340.0000        10.5456         -
80.0000         340.0000        11.0262         -
90.0000         340.0000        11.4926         -
100.0000        340.0000        11.9469         -
110.0000        340.0000        12.3920         -
120.0000        340.0000        12.8313         -
130.0000        340.0000        13.2687         -
140.0000        340.0000        13.7080         -
150.0000        340.0000        14.1531         -
160.0000        340.0000        14.6074         -
170.0000        340.0000        15.0738         -
180.0000        340.0000        15.5544         -
190.0000        340.0000        16.0505         -
200.0000        340.0000        16.5622         -
210.0000        340.0000        17.0889         -
220.0000        340.0000        17.6289         -
230.0000        340.0000        18.1796         -
240.0000        340.0000        18.7378         -
250.0000        340.0000        19.3000         -
260.0000        340.0000        19.8622         -
270.0000        340.0000        20.4204         -
280.0000        340.0000        20.9711         -
290.0000        340.0000        21.5111         -
300.0000        340.0000        22.0378         -
310.0000        340.0000        22.5495         -
320.0000        340.0000        23.0456         -
330.0000        340.0000        23.5262         -
340.0000        340.0000        23.9926         -
350.0000        340.0000        24.4469         -
360.0000        340.0000        24.8920         -
370.0000        340.0000        25.3313         -
380.0000        340.0000        25.7687         -
390.0000        340.0000        26.2080         -
400.0000        340.0000        26.6531         -
410.0000        340.0000        27.1074         -
420.0000        340.0000        27.5738         -
430.0000        340.0000        28.0544         -
440.0000        340.0000        28.5505         -
450.0000        340.0000        29.0622         -
460.0000        340.0000        29.5889         -
470.0000        340.0000        30.1289         -
480.0000        340.0000        30.6796         -
490.0000        340.0000        31.2378         -
500.0000        340.0000        31.8000         -
0.0000          350.0000        7.0000          -
10.0000         350.0000        7.5622          -
20.0000         350.0000        8.1204          -
30.0000         350.0000        8.6711          -
40.0000         350.0000        9.2111          -
50.0000         350.0000        9.7378          -
60.0000         350.0000        10.2495         -
70.0000         350.0000        10.7456         -
80.0000         350.0000        11.2262         -
90.0000         350.0000        11.6926         -
100.0000        350.0000        12.1469         -
110.0000        350.0000        12.5920         -
120.0000        350.0000        13.0313         -
130.0000        350.0000        13.4687         -
140.0000        350.0000        13.9080         -
150.0000        350.0000        14.3531         -
160.0000        350.0000        14.8074         -
170.0000        350.0000        15.2738         -
180.0000        350.0000        15.7544         -
190.0000        350.0000        16.2505         -
200.0000        350.0000        16.7622         -
210.0000        350.0000        17.2889         -
220.0000        350.0000        17.8289         -
230.0000        350.0000        18.3796         -
240.0000        350.0000        18.9378         -
250.0000        350.0000        19.5000         -
260.0000        350.0000        20.0622         -
270.0000        350.0000        20.6204         -
280.0000        350.0000        21.1711         -
290.0000        350.0000        21.7111         -
300.0000        350.0000        22.2378         -
310.0000        350.0000        22.7495         -
320.0000        350.0000        23.2456         -
330.0000        350.0000        23.7262         -
340.0000        350.0000        24.1926         -
350.0000        350.0000        24.6469         -
360.0000        350.0000        25.0920         -
370.0000        350.0000        25.5313         -
380.0000        350.0000        25.9687         -
390.0000        350.0000        26.4080         -
400.0000        350.0000        26.8531         -
410.0000        350.0000        27.3074         -
420.0000        350.0000        27.7738         -
430.0000        350.0000        28.2544         -
440.0000        350.0000        28.7505         -
450.0000        350.0000        29.2622         -
460.0000        350.0000        29.7889         -
470.0000        350.0000        30.3289         -
480.0000        350.0000        30.8796         -
490.0000        350.0000        31.4378         -
500.0000        350.0000        32.0000         -
0.0000          360.0000        7.2000          -
10.0000         360.0000        7.7622          -
20.0000         360.0000        8.3204          -
30.0000         360.0000        8.8711          -
40.0000         360.0000        9.4111          -
50.0000         360.0000        9.9378          -
60.0000         360.0000        10.4495         -
70.0000         360.0000        10.9456         -
80.0000         360.0000        11.4262         -
90.0000         360.0000        11.8926         -
100.0000        360.0000        12.3469         -
110.0000        360.0000        12.7920         -
120.0000        360.0000        13.2313         -
130.0000        360.0000        13.6687         -
140.0000        360.0000        14.1080         -
150.0000        360.0000        14.5531         -
160.0000        360.0000        15.0074         -
170.0000        360.0000        15.4738         -
180.0000        360.0000        15.9544         -
190.0000        360.0000        16.4505         -
200.0000        360.0000        16.9622         -
210.0000        360.0000        17.4889         -
220.0000        360.0000        18.0289         -
230.0000        360.0000        18.5796         -
240.0000        360.0000        19.1378         -
250.0000        360.0000        19.7000         -
260.0000        360.0000        20.2622         -
270.0000        360.0000        20.8204         -
280.0000        360.0000        21.3711         -
290.0000        360.0000        21.9111         -
300.0000        360.0000        22.4378         -
310.0000        360.0000        22.9495         -
320.0000        360.0000        23.4456         -
330.0000        360.0000        23.9262         -
340.0000        360.0000        24.3926         -
350.0000        360.0000        24.8469         -
360.0000        360.0000        25.2920         -
370.0000        360.0000        25.7313         -
380.0000        360.0000        26.1687         -
390.0000        360.0000        26.6080         -
400.0000        360.0000        27.0531         -
410.0000        360.0000        27.5074         -
420.0000        360.0000        27.9738         -
430.0000        360.0000        28.4544         -
440.0000        360.0000        28.9505         -
450.0000        360.0000        29.4622         -
460.0000        360.0000        29.9889         -
470.0000        360.0000        30.5289         -
480.0000        360.0000        31.0796         -
490.0000        360.0000        31.6378         -
500.0000        360.0000        32.2000         -
0.0000          370.0000        7.4000          -
10.0000         370.0000        7.9622          -
20.0000         370.0000        8.5204          -
30.0000         370.0000        9.0711          -
40.0000         370.0000        9.6111          -
50.0000         370.0000        10.1378         -
60.0000         370.0000        10.6495         -
70.0000         370.0000        11.1456         -
80.0000         370.0000        11.6262         -
90.0000         370.0000        12.0926         -
100.0000        370.0000        12.5469         -
110.0000        370.0000        12.9920         -
120.0000        370.0000        13.4313         -
130.0000        370.0000        13.8687         -
140.0000        370.0000        14.3080         -
150.0000        370.0000        14.7531         -
160.0000        370.0000        15.2074         -
170.0000        370.0000        15.6738         -
180.0000        370.0000        16.1544         -
190.0000        370.0000        16.6505         -
200.0000        370.0000        17.1622         -
210.0000        370.0000        17.6889         -
220.0000        370.0000        18.2289         -
230.0000        370.0000        18.7796         -
240.0000        370.0000        19.3378         -
250.0000        370.0000        19.9000         -
260.0000        370.0000        20.4622         -
270.0000        370.0000        21.0204         -
280.0000        370.0000        21.5711         -
290.0000        370.0000        22.1111         -
300.0000        370.0000        22.6378         -
310.0000        370.0000        23.1495         -
320.0000        370.0000        23.6456         -
330.0000        370.0000        24.1262         -
340.0000        370.0000        24.5926         -
350.0000        370.0000        25.0469         -
360.0000        370.0000        25.4920         -
370.0000        370.0000        25.9313         -
380.0000        370.0000        26.3687         -
390.0000        370.0000        26.8080         -
400.0000        370.0000        27.2531         -
410.0000        370.0000        27.7074         -
420.0000        370.0000        28.1738         -
430.0000        370.0000        28.6544         -
440.0000        370.0000        29.1505         -
450.0000        370.0000        29.6622         -
460.0000        370.0000        30.1889         -
470.0000        370.0000        30.7289         -
480.0000        370.0000        31.2796         -
490.0000        370.0000        31.8378         -
500.0000        370.0000        32.4000         -
0.0000          380.0000        7.6000          -
10.0000         380.0000        8.1622          -
20.0000         380.0000        8.7204          -
30.0000         380.0000        9.2711          -
40.0000         380.0000        9.8111          -
50.0000         380.0000        10.3378         -
60.0000         380.0000        10.8495         -
70.0000         380.0000        11.3456         -
80.0000         380.0000        11.8262         -
90.0000         380.0000        12.2926         -
100.0000        380.0000        12.7469         -
110.0000        380.0000        13.1920         -
120.0000        380.0000        13.6313         -
130.0000        380.0000        14.0687         -
140.0000        380.0000        14.5080         -
150.0000        380.0000        14.9531         -
160.0000        380.0000        15.4074         -
170.0000        380.0000        15.8738         -
180.0000        380.0000        16.3544         -
190.0000        380.0000        16.8505         -
200.0000        380.0000        17.3622         -
210.0000        380.0000        17.8889         -
220.0000        380.0000        18.4289         -
230.0000        380.0000        18.9796         -
240.0000        380.0000        19.5378         -
250.0000        380.0000        20.1000         -
260.0000        380.0000        20.6622         -
270.0000        380.0000        21.2204         -
280.0000        380.0000        21.7711         -
290.0000        380.0000        22.3111         -
300.0000        380.0000        22.8378         -
310.0000        380.0000        23.3495         -
320.0000        380.0000        23.8456         -
330.0000        380.0000        24.3262         -
340.0000        380.0000        24.7926         -
350.0000        380.0000        25.2469         -
360.0000        380.0000        25.6920         -
370.0000        380.0000        26.1313         -
380.0000        380.0000        26.5687         -
390.0000        380.0000        27.0080         -
400.0000        380.0000        27.4531         -
410.0000        380.0000        27.9074         -
420.0000        380.0000        28.3738         -
430.0000        380.0000        28.8544         -
440.0000        380.0000        29.3505         -
450.0000        380.0000        29.8622         -
460.0000        380.0000        30.3889         -
470.0000        380.0000        30.9289         -
480.0000        380.0000        31.4796         -
490.0000        380.0000        32.0378         -
500.0000        380.0000        32.6000         -
0.0000          390.0000        7.8000          -
10.0000         390.0000        8.3622          -
20.0000         390.0000        8.9204          -
30.0000         390.0000        9.4711          -
40.0000         390.0000        10.0111         -
50.0000         390.0000        10.5378         -
60.0000         390.0000        11.0495         -
70.0000         390.0000        11.5456         -
80.0000         390.0000        12.0262         -
90.0000         390.0000        12.4926         -
100.0000        390.0000        12.9469         -
110.0000        390.0000        13.3920         -
120.0000        390.0000        13.8313         -
130.0000        390.0000        14.2687         -
140.0000        390.0000        14.7080         -
150.0000        390.0000        15.1531         -
160.0000        390.0000        15.6074         -
170.0000        390.0000        16.0738         -
180.0000        390.0000        16.5544         -
190.0000        390.0000        17.0505         -
200.0000        390.0000        17.5622         -
210.0000        390.0000        18.0889         -
220.0000        390.0000        18.6289         -
230.0000        390.0000        19.1796         -
240.0000        390.0000        19.7378         -
250.0000        390.0000        20.3000         -
260.0000        390.0000        20.8622         -
270.0000        390.0000        21.4204         -
280.0000        390.0000        21.9711         -
290.0000        390.0000        22.5111         -
300.0000        390.0000        23.0378         -
310.0000        390.0000        23.5495         -
320.0000        390.0000        24.0456         -
330.0000        390.0000        24.5262         -
340.0000        390.0000        24.9926         -
350.0000        390.0000        25.4469         -
360.0000        390.0000        25.8920         -
370.0000        390.0000        26.3313         -
380.0000        390.0000        26.7687         -
390.0000        390.0000        27.2080         -
400.0000        390.0000        27.6531         -
410.0000        390.0000        28.1074         -
420.0000        390.0000        28.5738         -
430.0000        390.0000        29.0544         -
440.0000        390.0000        29.5505         -
450.0000        390.0000        30.0622         -
460.0000        390.0000        30.5889         -
470.0000        390.0000        31.1289         -
480.0000        390.0000        31.6796         -
490.0000        390.0000        32.2378         -
500.0000        390.0000        32.8000         -
0.0000          400.0000        8.0000          -
10.0000         400.0000        8.5622          -
20.0000         400.0000        9.1204          -
30.0000         400.0000        9.6711          -
40.0000         400.0000        10.2111         -
50.0000         400.0000        10.7378         -
60.0000         400.0000        11.2495         -
70.0000         400.0000        11.7456         -
80.0000         400.0000        12.2262         -
90.0000         400.0000        12.6926         -
100.0000        400.0000        13.1469         -
110.0000        400.0000        13.5920         -
120.0000        400.0000        14.0313         -
130.0000        400.0000        14.4687         -
140.0000        400.0000        14.9080         -
150.0000        400.0000        15.3531         -
160.0000        400.0000        15.8074         -
170.0000        400.0000        16.2738         -
180.0000        400.0000        16.7544         -
190.0000        400.0000        17.2505         -
200.0000        400.0000        17.7622         -
210.0000        400.0000        18.2889         -
220.0000        400.0000        18.8289         -
230.0000        400.0000        19.3796         -
240.0000        400.0000        19.9378         -
250.0000        400.0000        20.5000         -
260.0000        400.0000        21.0622         -
270.0000        400.0000        21.6204         -
280.0000        400.0000        22.1711         -
290.0000        400.0000        22.7111         -
300.0000        400.0000        23.2378         -
310.0000        400.0000        23.7495         -
320.0000        400.0000        24.2456         -
330.0000        400.0000        24.7262         -
340.0000        400.0000        25.1926         -
350.0000        400.0000        25.6469         -
360.0000        400.0000        26.0920         -
370.0000        400.0000        26.5313         -
380.0000        400.0000        26.9687         -
390.0000        400.0000        27.4080         -
400.0000        400.0000        27.8531         -
410.0000        400.0000        28.3074         -
420.0000        400.0000        28.7738         -
430.0000        400.0000        29.2544         -
440.0000        400.0000        29.7505         -
450.0000        400.0000        30.2622         -
460.0000        400.0000        30.7889         -
470.0000        400.0000        31.3289         -
480.0000        400.0000        31.8796         -
490.0000        400.0000        32.4378         -
500.0000        400.0000        33.0000         -
0.0000          410.0000        8.2000          -
10.0000         410.0000        8.7622          -
20.0000         410.0000        9.3204          -
30.0000         410.0000        9.8711          -
40.0000         410.0000        10.4111         -
50.0000         410.0000        10.9378         -
60.0000         410.0000        11.4495         -
70.0000         410.0000        11.9456         -
80.0000         410.0000        12.4262         -
90.0000         410.0000        12.8926         -
100.0000        410.0000        13.3469         -
110.0000        410.0000        13.7920         -
120.0000        410.0000        14.2313         -
130.0000        410.0000        14.6687         -
140.0000        410.0000        15.1080         -
150.0000        410.0000        15.5531         -
160.0000        410.0000        16.0074         -
170.0000        410.0000        16.4738         -
180.0000        410.0000        16.9544         -
190.0000        410.0000        17.4505         -
200.0000        410.0000        17.9622         -
210.0000        410.0000        18.4889         -
220.0000        410.0000        19.0289         -
230.0000        410.0000        19.5796         -
240.0000        410.0000        20.1378         -
250.0000        410.0000        20.7000         -
260.0000        410.0000        21.2622         -
270.0000        410.0000        21.8204         -
280.0000        410.0000        22.3711         -
290.0000        410.0000        22.9111         -
300.0000        410.0000        23.4378         -
310.0000        410.0000        23.9495         -
320.0000        410.0000        24.4456         -
330.0000        410.0000        24.9262         -
340.0000        410.0000        25.3926         -
350.0000        410.0000        25.8469         -
360.0000        410.0000        26.2920         -
370.0000        410.0000        26.7313         -
380.0000        410.0000        27.1687         -
390.0000        410.0000        27.6080         -
400.0000        410.0000        28.0531         -
410.0000        410.0000        28.5074         -
420.0000        410.0000        28.9738         -
430.0000        410.0000        29.4544         -
440.0000        410.0000        29.9505         -
450.0000        410.0000        30.4622         -
460.0000        410.0000        30.9889         -
470.0000        410.0000        31.5289         -
480.0000        410.0000        32.0796         -
490.0000        410.0000        32.6378         -
500.0000        410.0000        33.2000         -
0.0000          420.0000        8.4000          -
10.0000         420.0000        8.9622          -
20.0000         420.0000        9.5204          -
30.0000         420.0000        10.0711         -
40.0000         420.0000        10.6111         -
50.0000         420.0000        11.1378         -
60.0000         420.0000        11.6495         -
70.0000         420.0000        12.1456         -
80.0000         420.0000        12.6262         -
90.0000         420.0000        13.0926         -
100.0000        420.0000        13.5469         -
110.0000        420.0000        13.9920         -
120.0000        420.0000        14.4313         -
130.0000        420.0000        14.8687         -
140.0000        420.0000        15.3080         -
150.0000        420.0000        15.7531         -
160.0000        420.0000        16.2074         -
170.0000        420.0000        16.6738         -
180.0000        420.0000        17.1544         -
190.0000        420.0000        17.6505         -
200.0000        420.0000        18.1622         -
210.0000        420.0000        18.6889         -
220.0000        420.0000        19.2289         -
230.0000        420.0000        19.7796         -
240.0000        420.0000        20.3378         -
250.0000        420.0000        20.9000         -
260.0000        420.0000        21.4622         -
270.0000        420.0000        22.0204         -
280.0000        420.0000        22.5711         -
290.0000        420.0000        23.1111         -
300.0000        420.0000        23.6378         -
310.0000        420.0000        24.1495         -
320.0000        420.0000        24.6456         -
330.0000        420.0000        25.1262         -
340.0000        420.0000        25.5926         -
350.0000        420.0000        26.0469         -
360.0000        420.0000        26.4920         -
370.0000        420.0000        26.9313         -
380.0000        420.0000        27.3687         -
390.0000        420.0000        27.8080         -
400.0000        420.0000        28.2531         -
410.0000        420.0000        28.7074         -
420.0000        420.0000        29.1738         -
430.0000        420.0000        29.6544         -
440.0000        420.0000        30.1505         -
450.0000        420.0000        30.6622         -
460.0000        420.0000        31.1889         -
470.0000        420.0000        31.7289         -
480.0000        420.0000        32.2796         -
490.0000        420.0000        32.8378         -
500.0000        420.0000        33.4000         -
0.0000          430.0000        8.6000          -
10.0000         430.0000        9.1622          -
20.0000         430.0000        9.7204          -
30.0000         430.0000        10.2711         -
40.0000         430.0000        10.8111         -
50.0000         430.0000        11.3378         -
60.0000         430.0000        11.8495         -
70.0000         430.0000        12.3456         -
80.0000         430.0000        12.8262         -
90.0000         430.0000        13.2926         -
100.0000        430.0000        13.7469         -
110.0000        430.0000        14.1920         -
120.0000        430.0000        14.6313         -
130.0000        430.0000        15.0687         -
140.0000        430.0000        15.5080         -
150.0000        430.0000        15.9531         -
160.0000        430.0000        16.4074         -
170.0000        430.0000        16.8738         -
180.0000        430.0000        17.3544         -
190.0000        430.0000        17.8505         -
200.0000        430.0000        18.3622         -
210.0000        430.0000        18.8889         -
220.0000        430.0000        19.4289         -
230.0000        430.0000        19.9796         -
240.0000        430.0000        20.5378         -
250.0000        430.0000        21.1000         -
260.0000        430.0000        21.6622         -
270.0000        430.0000        22.2204         -
280.0000        430.0000        22.7711         -
290.0000        430.0000        23.3111         -
300.0000        430.0000        23.8378         -
310.0000        430.0000        24.3495         -
320.0000        430.0000        24.8456         -
330.0000        430.0000        25.3262         -
340.0000        430.0000        25.7926         -
350.0000        430.0000        26.2469         -
360.0000        430.0000        26.6920         -
370.0000        430.0000        27.1313         -
380.0000        430.0000        27.5687         -
390.0000        430.0000        28.0080         -
400.0000        430.0000        28.4531         -
410.0000        430.0000        28.9074         -
420.0000        430.0000        29.3738         -
430.0000        430.0000        29.8544         -
440.0000        430.0000        30.3505         -
450.0000        430.0000        30.8622         -
460.0000        430.0000        31.3889         -
470.0000        430.0000        31.9289         -
480.0000        430.0000        32.4796         -
490.0000        430.0000        33.0378         -
500.0000        430.0000        33.6000         -
0.0000          440.0000        8.8000          -
10.0000         440.0000        9.3622          -
20.0000         440.0000        9.9204          -
30.0000         440.0000        10.4711         -
40.0000         440.0000        11.0111         -
50.0000         440.0000        11.5378         -
60.0000         440.0000        12.0495         -
70.0000         440.0000        12.5456         -
80.0000         440.0000        13.0262         -
90.0000         440.0000        13.4926         -
100.0000        440.0000        13.9469         -
110.0000        440.0000        14.3920         -
120.0000        440.0000        14.8313         -
130.0000        440.0000        15.2687         -
140.0000        440.0000        15.7080         -
150.0000        440.0000        16.1531         -
160.0000        440.0000        16.6074         -
170.0000        440.0000        17.0738         -
180.0000        440.0000        17.5544         -
190.0000        440.0000        18.0505         -
200.0000        440.0000        18.5622         -
210.0000        440.0000        19.0889         -
220.0000        440.0000        19.6289         -
230.0000        440.0000        20.1796         -
240.0000        440.0000        20.7378         -
250.0000        440.0000        21.3000         -
260.0000        440.0000        21.8622         -
270.0000        440.0000        22.4204         -
280.0000        440.0000        22.9711         -
290.0000        440.0000        23.5111         -
300.0000        440.0000        24.0378         -
310.0000        440.0000        24.5495         -
320.0000        440.0000        25.0456         -
330.0000        440.0000        25.5262         -
340.0000        440.0000        25.9926         -
350.0000        440.0000        26.4469         -
360.0000        440.0000        26.8920         -
370.0000        440.0000        27.3313         -
380.0000        440.0000        27.7687         -
390.0000        440.0000        28.2080         -
400.0000        440.0000        28.6531         -
410.0000        440.0000        29.1074         -
420.0000        440.0000        29.5738         -
430.0000        440.0000        30.0544         -
440.0000        440.0000        30.5505         -
450.0000        440.0000        31.0622         -
460.0000        440.0000        31.5889         -
470.0000        440.0000        32.1289         -
480.0000        440.0000        32.6796         -
490.0000        440.0000        33.2378         -
500.0000        440.0000        33.8000         -
0.0000          450.0000        9.0000          -
10.0000         450.0000        9.5622          -
20.0000         450.0000        10.1204         -
30.0000         450.0000        10.6711         -
40.0000         450.0000        11.2111         -
50.0000         450.0000        11.7378         -
60.0000         450.0000        12.2495         -
70.0000         450.0000        12.7456         -
80.0000         450.0000        13.2262         -
90.0000         450.0000        13.6926         -
100.0000        450.0000        14.1469         -
110.0000        450.0000        14.5920         -
120.0000        450.0000        15.0313         -
130.0000        450.0000        15.4687         -
140.0000        450.0000        15.9080         -
150.0000        450.0000        16.3531         -
160.0000        450.0000        16.8074         -
170.0000        450.0000        17.2738         -
180.0000        450.0000        17.7544         -
190.0000        450.0000        18.2505         -
200.0000        450.0000        18.7622         -
210.0000        450.0000        19.2889         -
220.0000        450.0000        19.8289         -
230.0000        450.0000        20.3796         -
240.0000        450.0000        20.9378         -
250.0000        450.0000        21.5000         -
260.0000        450.0000        22.0622         -
270.0000        450.0000        22.6204         -
280.0000        450.0000        23.1711         -
290.0000        450.0000        23.7111         -
300.0000        450.0000        24.2378         -
310.0000        450.0000        24.7495         -
320.0000        450.0000        25.2456         -
330.0000        450.0000        25.7262         -
340.0000        450.0000        26.1926         -
350.0000        450.0000        26.6469         -
360.0000        450.0000        27.0920         -
370.0000        450.0000        27.5313         -
380.0000        450.0000        27.9687         -
390.0000        450.0000        28.4080         -
400.0000        450.0000        28.8531         -
410.0000        450.0000        29.3074         -
420.0000        450.0000        29.7738         -
430.0000        450.0000        30.2544         -
440.0000        450.0000        30.7505         -
450.0000        450.0000        31.2622         -
460.0000        450.0000        31.7889         -
470.0000        450.0000        32.3289         -
480.0000        450.0000        32.8796         -
490.0000        450.0000        33.4378         -
500.0000        450.0000        34.0000         -
0.0000          460.0000        9.2000          -
10.0000         460.0000        9.7622          -
20.0000         460.0000        10.3204         -
30.0000         460.0000        10.8711         -
40.0000         460.0000        11.4111         -
50.0000         460.0000        11.9378         -
60.0000         460.0000        12.4495         -
70.0000         460.0000        12.9456         -
80.0000         460.0000        13.4262         -
90.0000         460.0000        13.8926         -
100.0000        460.0000        14.3469         -
110.0000        460.0000        14.7920         -
120.0000        460.0000        15.2313         -
130.0000        460.0000        15.6687         -
140.0000        460.0000        16.1080         -
150.0000        460.0000        16.5531         -
160.0000        460.0000        17.0074         -
170.0000        460.0000        17.4738         -
180.0000        460.0000        17.9544         -
190.0000        460.0000        18.4505         -
200.0000        460.0000        18.9622         -
210.0000        460.0000        19.4889         -
220.0000        460.0000        20.0289         -
230.0000        460.0000        20.5796         -
240.0000        460.0000        21.1378         -
250.0000        460.0000        21.7000         -
260.0000        460.0000        22.2622         -
270.0000        460.0000        22.8204         -
280.0000        460.0000        23.3711         -
290.0000        460.0000        23.9111         -
300.0000        460.0000        24.4378         -
310.0000        460.0000        24.9495         -
320.0000        460.0000        25.4456         -
330.0000        460.0000        25.9262         -
340.0000        460.0000        26.3926         -
350.0000        460.0000        26.8469         -
360.0000        460.0000        27.2920         -
370.0000        460.0000        27.7313         -
380.0000        460.0000        28.1687         -
390.0000        460.0000        28.6080         -
400.0000        460.0000        29.0531         -
410.0000        460.0000        29.5074         -
420.0000        460.0000        29.9738         -
430.0000        460.0000        30.4544         -
440.0000        460.0000        30.9505         -
450.0000        460.0000        31.4622         -
460.0000        460.0000        31.9889         -
470.0000        460.0000        32.5289         -
480.0000        460.0000        33.0796         -
490.0000        460.0000        33.6378         -
500.0000        460.0000        34.2000         -
0.0000          470.0000        9.4000          -
10.0000         470.0000        9.9622          -
20.0000         470.0000        10.5204         -
30.0000         470.0000        11.0711         -
40.0000         470.0000        11.6111         -
50.0000         470.0000        12.1378         -
60.0000         470.0000        12.6495         -
70.0000         470.0000        13.1456         -
80.0000         470.0000        13.6262         -
90.0000         470.0000        14.0926         -
100.0000        470.0000        14.5469         -
110.0000        470.0000        14.9920         -
120.0000        470.0000        15.4313         -
130.0000        470.0000        15.8687         -
140.0000        470.0000        16.3080         -
150.0000        470.0000        16.7531         -
160.0000        470.0000        17.2074         -
170.0000        470.0000        17.6738         -
180.0000        470.0000        18.1544         -
190.0000        470.0000        18.6505         -
200.0000        470.0000        19.1622         -
210.0000        470.0000        19.6889         -
220.0000        470.0000        20.2289         -
230.0000        470.0000        20.7796         -
240.0000        470.0000        21.3378         -
250.0000        470.0000        21.9000         -
260.0000        470.0000        22.4622         -
270.0000        470.0000        23.0204         -
280.0000        470.0000        23.5711         -
290.0000        470.0000        24.1111         -
300.0000        470.0000        24.6378         -
310.0000        470.0000        25.1495         -
320.0000        470.0000        25.6456         -
330.0000        470.0000        26.1262         -
340.0000        470.0000        26.5926         -
350.0000        470.0000        27.0469         -
360.0000        470.0000        27.4920         -
370.0000        470.0000        27.9313         -
380.0000        470.0000        28.3687         -
390.0000        470.0000        28.8080         -
400.0000        470.0000        29.2531         -
410.0000        470.0000        29.7074         -
420.0000        470.0000        30.1738         -
430.0000        470.0000        30.6544         -
440.0000        470.0000        31.1505         -
450.0000        470.0000        31.6622         -
460.0000        470.0000        32.1889         -
470.0000        470.0000        32.7289         -
480.0000        470.0000        33.2796         -
490.0000        470.0000        33.8378         -
500.0000        470.0000        34.4000         -
0.0000          480.0000        9.6000          -
10.0000         480.0000        10.1622         -
20.0000         480.0000        10.7204         -
30.0000         480.0000        11.2711         -
40.0000         480.0000        11.8111         -
50.0000         480.0000        12.3378         -
60.0000         480.0000        12.8495         -
70.0000         480.0000        13.3456         -
80.0000         480.0000        13.8262         -
90.0000         480.0000        14.2926         -
100.0000        480.0000        14.7469         -
110.0000        480.0000        15.1920         -
120.0000        480.0000        15.6313         -
130.0000        480.0000        16.0687         -
140.0000        480.0000        16.5080         -
150.0000        480.0000        16.9531         -
160.0000        480.0000        17.4074         -
170.0000        480.0000        17.8738         -
180.0000        480.0000        18.3544         -
190.0000        480.0000        18.8505         -
200.0000        480.0000        19.3622         -
210.0000        480.0000        19.8889         -
220.0000        480.0000        20.4289         -
230.0000        480.0000        20.9796         -
240.0000        480.0000        21.5378         -
250.0000        480.0000        22.1000         -
260.0000        480.0000        22.6622         -
270.0000        480.0000        23.2204         -
280.0000        480.0000        23.7711         -
290.0000        480.0000        24.3111         -
300.0000        480.0000        24.8378         -
310.0000        480.0000        25.3495         -
320.0000        480.0000        25.8456         -
330.0000        480.0000        26.3262         -
340.0000        480.0000        26.7926         -
350.0000        480.0000        27.2469         -
360.0000        480.0000        27.6920         -
370.0000        480.0000        28.1313         -
380.0000        480.0000        28.5687         -
390.0000        480.0000        29.0080         -
400.0000        480.0000        29.4531         -
410.0000        480.0000        29.9074         -
420.0000        480.0000        30.3738         -
430.0000        480.0000        30.8544         -
440.0000        480.0000        31.3505         -
450.0000        480.0000        31.8622         -
460.0000        480.0000        32.3889         -
470.0000        480.0000        32.9289         -
480.0000        480.0000        33.4796         -
490.0000        480.0000        34.0378         -
500.0000        480.0000        34.6000         -
0.0000          490.0000        9.8000          -
10.0000         490.0000        10.3622         -
20.0000         490.0000        10.9204         -
30.0000         490.0000        11.4711         -
40.0000         490.0000        12.0111         -
50.0000         490.0000        12.5378         -
60.0000         490.0000        13.0495         -
70.0000         490.0000        13.5456         -
80.0000         490.0000        14.0262         -
90.0000         490.0000        14.4926         -
100.0000        490.0000        14.9469         -
110.0000        490.0000        15.3920         -
120.0000        490.0000        15.8313         -
130.0000        490.0000        16.2687         -
140.0000        490.0000        16.7080         -
150.0000        490.0000        17.1531         -
160.0000        490.0000        17.6074         -
170.0000        490.0000        18.0738         -
180.0000        490.0000        18.5544         -
190.0000        490.0000        19.0505         -
200.0000        490.0000        19.5622         -
210.0000        490.0000        20.0889         -
220.0000        490.0000        20.6289         -
230.0000        490.0000        21.1796         -
240.0000        490.0000        21.7378         -
250.0000        490.0000        22.3000         -
260.0000        490.0000        22.8622         -
270.0000        490.0000        23.4204         -
280.0000        490.0000        23.9711         -
290.0000        490.0000        24.5111         -
300.0000        490.0000        25.0378         -
310.0000        490.0000        25.5495         -
320.0000        490.0000        26.0456         -
330.0000        490.0000        26.5262         -
340.0000        490.0000        26.9926         -
350.0000        490.0000        27.4469         -
360.0000        490.0000        27.8920         -
370.0000        490.0000        28.3313         -
380.0000        490.0000        28.7687         -
390.0000        490.0000        29.2080         -
400.0000        490.0000        29.6531         -
410.0000        490.0000        30.1074         -
420.0000        490.0000        30.5738         -
430.0000        490.0000        31.0544         -
440.0000        490.0000        31.5505         -
450.0000        490.0000        32.0622         -
460.0000        490.0000        32.5889         -
470.0000        490.0000        33.1289         -
480.0000        490.0000        33.6796         -
490.0000        490.0000        34.2378         -
500.0000        490.0000        34.8000         -
0.0000          500.0000        10.0000         -
10.0000         500.0000        10.5622         -
20.0000         500.0000        11.1204         -
30.0000         500.0000        11.6711         -
40.0000         500.0000        12.2111         -
50.0000         500.0000        12.7378         -
60.0000         500.0000        13.2495         -
70.0000         500.0000        13.7456         -
80.0000         500.0000        14.2262         -
90.0000         500.0000        14.6926         -
100.0000        500.0000        15.1469         -
110.0000        500.0000        15.5920         -
120.0000        500.0000        16.0313         -
130.0000        500.0000        16.4687         -
140.0000        500.0000        16.9080         -
150.0000        500.0000        17.3531         -
160.0000        500.0000        17.8074         -
170.0000        500.0000        18.2738         -
180.0000        500.0000        18.7544         -
190.0000        500.0000        19.2505         -
200.0000        500.0000        19.7622         -
210.0000        500.0000        20.2889         -
220.0000        500.0000        20.8289         -
230.0000        500.0000        21.3796         -
240.0000        500.0000        21.9378         -
250.0000        500.0000        22.5000         -
260.0000        500.0000        23.0622         -
270.0000        500.0000        23.6204         -
280.0000        500.0000        24.1711         -
290.0000        500.0000        24.7111         -
300.0000        500.0000        25.2378         -
310.0000        500.0000        25.7495         -
320.0000        500.0000        26.2456         -
330.0000        500.0000        26.7262         -
340.0000        500.0000        27.1926         -
350.0000        500.0000        27.6469         -
360.0000        500.0000        28.0920         -
370.0000        500.0000        28.5313         -
380.0000        500.0000        28.9687         -
390.0000        500.0000        29.4080         -
400.0000        500.0000        29.8531         -
410.0000        500.0000        30.3074         -
420.0000        500.0000        30.7738         -
430.0000        500.0000        31.2544         -
440.0000        500.0000        31.7505         -
450.0000        500.0000        32.2622         -
460.0000        500.0000        32.7889         -
470.0000        500.0000        33.3289         -
480.0000        500.0000        33.8796         -
490.0000        500.0000        34.4378         -
500.0000        500.0000        35.0000         -

[2D_TRIANGLES]
;;V1      V2       V3       MANNINGS_N   TAG
0        1        52       0.03000     -
0        52       51       0.03000     -
1        2        53       0.03000     -
1        53       52       0.03000     -
2        3        54       0.03000     -
2        54       53       0.03000     -
3        4        55       0.03000     -
3        55       54       0.03000     -
4        5        56       0.03000     -
4        56       55       0.03000     -
5        6        57       0.03000     -
5        57       56       0.03000     -
6        7        58       0.03000     -
6        58       57       0.03000     -
7        8        59       0.03000     -
7        59       58       0.03000     -
8        9        60       0.03000     -
8        60       59       0.03000     -
9        10       61       0.03000     -
9        61       60       0.03000     -
10       11       62       0.03000     -
10       62       61       0.03000     -
11       12       63       0.03000     -
11       63       62       0.03000     -
12       13       64       0.03000     -
12       64       63       0.03000     -
13       14       65       0.03000     -
13       65       64       0.03000     -
14       15       66       0.03000     -
14       66       65       0.03000     -
15       16       67       0.03000     -
15       67       66       0.03000     -
16       17       68       0.03000     -
16       68       67       0.03000     -
17       18       69       0.03000     -
17       69       68       0.03000     -
18       19       70       0.03000     -
18       70       69       0.03000     -
19       20       71       0.03000     -
19       71       70       0.03000     -
20       21       72       0.03000     -
20       72       71       0.03000     -
21       22       73       0.03000     -
21       73       72       0.03000     -
22       23       74       0.03000     -
22       74       73       0.03000     -
23       24       75       0.03000     -
23       75       74       0.03000     -
24       25       76       0.03000     -
24       76       75       0.03000     -
25       26       77       0.03000     -
25       77       76       0.03000     -
26       27       78       0.03000     -
26       78       77       0.03000     -
27       28       79       0.03000     -
27       79       78       0.03000     -
28       29       80       0.03000     -
28       80       79       0.03000     -
29       30       81       0.03000     -
29       81       80       0.03000     -
30       31       82       0.03000     -
30       82       81       0.03000     -
31       32       83       0.03000     -
31       83       82       0.03000     -
32       33       84       0.03000     -
32       84       83       0.03000     -
33       34       85       0.03000     -
33       85       84       0.03000     -
34       35       86       0.03000     -
34       86       85       0.03000     -
35       36       87       0.03000     -
35       87       86       0.03000     -
36       37       88       0.03000     -
36       88       87       0.03000     -
37       38       89       0.03000     -
37       89       88       0.03000     -
38       39       90       0.03000     -
38       90       89       0.03000     -
39       40       91       0.03000     -
39       91       90       0.03000     -
40       41       92       0.03000     -
40       92       91       0.03000     -
41       42       93       0.03000     -
41       93       92       0.03000     -
42       43       94       0.03000     -
42       94       93       0.03000     -
43       44       95       0.03000     -
43       95       94       0.03000     -
44       45       96       0.03000     -
44       96       95       0.03000     -
45       46       97       0.03000     -
45       97       96       0.03000     -
46       47       98       0.03000     -
46       98       97       0.03000     -
47       48       99       0.03000     -
47       99       98       0.03000     -
48       49       100      0.03000     -
48       100      99       0.03000     -
49       50       101      0.03000     -
49       101      100      0.03000     -
51       52       103      0.03000     -
51       103      102      0.03000     -
52       53       104      0.03000     -
52       104      103      0.03000     -
53       54       105      0.03000     -
53       105      104      0.03000     -
54       55       106      0.03000     -
54       106      105      0.03000     -
55       56       107      0.03000     -
55       107      106      0.03000     -
56       57       108      0.03000     -
56       108      107      0.03000     -
57       58       109      0.03000     -
57       109      108      0.03000     -
58       59       110      0.03000     -
58       110      109      0.03000     -
59       60       111      0.03000     -
59       111      110      0.03000     -
60       61       112      0.03000     -
60       112      111      0.03000     -
61       62       113      0.03000     -
61       113      112      0.03000     -
62       63       114      0.03000     -
62       114      113      0.03000     -
63       64       115      0.03000     -
63       115      114      0.03000     -
64       65       116      0.03000     -
64       116      115      0.03000     -
65       66       117      0.03000     -
65       117      116      0.03000     -
66       67       118      0.03000     -
66       118      117      0.03000     -
67       68       119      0.03000     -
67       119      118      0.03000     -
68       69       120      0.03000     -
68       120      119      0.03000     -
69       70       121      0.03000     -
69       121      120      0.03000     -
70       71       122      0.03000     -
70       122      121      0.03000     -
71       72       123      0.03000     -
71       123      122      0.03000     -
72       73       124      0.03000     -
72       124      123      0.03000     -
73       74       125      0.03000     -
73       125      124      0.03000     -
74       75       126      0.03000     -
74       126      125      0.03000     -
75       76       127      0.03000     -
75       127      126      0.03000     -
76       77       128      0.03000     -
76       128      127      0.03000     -
77       78       129      0.03000     -
77       129      128      0.03000     -
78       79       130      0.03000     -
78       130      129      0.03000     -
79       80       131      0.03000     -
79       131      130      0.03000     -
80       81       132      0.03000     -
80       132      131      0.03000     -
81       82       133      0.03000     -
81       133      132      0.03000     -
82       83       134      0.03000     -
82       134      133      0.03000     -
83       84       135      0.03000     -
83       135      134      0.03000     -
84       85       136      0.03000     -
84       136      135      0.03000     -
85       86       137      0.03000     -
85       137      136      0.03000     -
86       87       138      0.03000     -
86       138      137      0.03000     -
87       88       139      0.03000     -
87       139      138      0.03000     -
88       89       140      0.03000     -
88       140      139      0.03000     -
89       90       141      0.03000     -
89       141      140      0.03000     -
90       91       142      0.03000     -
90       142      141      0.03000     -
91       92       143      0.03000     -
91       143      142      0.03000     -
92       93       144      0.03000     -
92       144      143      0.03000     -
93       94       145      0.03000     -
93       145      144      0.03000     -
94       95       146      0.03000     -
94       146      145      0.03000     -
95       96       147      0.03000     -
95       147      146      0.03000     -
96       97       148      0.03000     -
96       148      147      0.03000     -
97       98       149      0.03000     -
97       149      148      0.03000     -
98       99       150      0.03000     -
98       150      149      0.03000     -
99       100      151      0.03000     -
99       151      150      0.03000     -
100      101      152      0.03000     -
100      152      151      0.03000     -
102      103      154      0.03000     -
102      154      153      0.03000     -
103      104      155      0.03000     -
103      155      154      0.03000     -
104      105      156      0.03000     -
104      156      155      0.03000     -
105      106      157      0.03000     -
105      157      156      0.03000     -
106      107      158      0.03000     -
106      158      157      0.03000     -
107      108      159      0.03000     -
107      159      158      0.03000     -
108      109      160      0.03000     -
108      160      159      0.03000     -
109      110      161      0.03000     -
109      161      160      0.03000     -
110      111      162      0.03000     -
110      162      161      0.03000     -
111      112      163      0.03000     -
111      163      162      0.03000     -
112      113      164      0.03000     -
112      164      163      0.03000     -
113      114      165      0.03000     -
113      165      164      0.03000     -
114      115      166      0.03000     -
114      166      165      0.03000     -
115      116      167      0.03000     -
115      167      166      0.03000     -
116      117      168      0.03000     -
116      168      167      0.03000     -
117      118      169      0.03000     -
117      169      168      0.03000     -
118      119      170      0.03000     -
118      170      169      0.03000     -
119      120      171      0.03000     -
119      171      170      0.03000     -
120      121      172      0.03000     -
120      172      171      0.03000     -
121      122      173      0.03000     -
121      173      172      0.03000     -
122      123      174      0.03000     -
122      174      173      0.03000     -
123      124      175      0.03000     -
123      175      174      0.03000     -
124      125      176      0.03000     -
124      176      175      0.03000     -
125      126      177      0.03000     -
125      177      176      0.03000     -
126      127      178      0.03000     -
126      178      177      0.03000     -
127      128      179      0.03000     -
127      179      178      0.03000     -
128      129      180      0.03000     -
128      180      179      0.03000     -
129      130      181      0.03000     -
129      181      180      0.03000     -
130      131      182      0.03000     -
130      182      181      0.03000     -
131      132      183      0.03000     -
131      183      182      0.03000     -
132      133      184      0.03000     -
132      184      183      0.03000     -
133      134      185      0.03000     -
133      185      184      0.03000     -
134      135      186      0.03000     -
134      186      185      0.03000     -
135      136      187      0.03000     -
135      187      186      0.03000     -
136      137      188      0.03000     -
136      188      187      0.03000     -
137      138      189      0.03000     -
137      189      188      0.03000     -
138      139      190      0.03000     -
138      190      189      0.03000     -
139      140      191      0.03000     -
139      191      190      0.03000     -
140      141      192      0.03000     -
140      192      191      0.03000     -
141      142      193      0.03000     -
141      193      192      0.03000     -
142      143      194      0.03000     -
142      194      193      0.03000     -
143      144      195      0.03000     -
143      195      194      0.03000     -
144      145      196      0.03000     -
144      196      195      0.03000     -
145      146      197      0.03000     -
145      197      196      0.03000     -
146      147      198      0.03000     -
146      198      197      0.03000     -
147      148      199      0.03000     -
147      199      198      0.03000     -
148      149      200      0.03000     -
148      200      199      0.03000     -
149      150      201      0.03000     -
149      201      200      0.03000     -
150      151      202      0.03000     -
150      202      201      0.03000     -
151      152      203      0.03000     -
151      203      202      0.03000     -
153      154      205      0.03000     -
153      205      204      0.03000     -
154      155      206      0.03000     -
154      206      205      0.03000     -
155      156      207      0.03000     -
155      207      206      0.03000     -
156      157      208      0.03000     -
156      208      207      0.03000     -
157      158      209      0.03000     -
157      209      208      0.03000     -
158      159      210      0.03000     -
158      210      209      0.03000     -
159      160      211      0.03000     -
159      211      210      0.03000     -
160      161      212      0.03000     -
160      212      211      0.03000     -
161      162      213      0.03000     -
161      213      212      0.03000     -
162      163      214      0.03000     -
162      214      213      0.03000     -
163      164      215      0.03000     -
163      215      214      0.03000     -
164      165      216      0.03000     -
164      216      215      0.03000     -
165      166      217      0.03000     -
165      217      216      0.03000     -
166      167      218      0.03000     -
166      218      217      0.03000     -
167      168      219      0.03000     -
167      219      218      0.03000     -
168      169      220      0.03000     -
168      220      219      0.03000     -
169      170      221      0.03000     -
169      221      220      0.03000     -
170      171      222      0.03000     -
170      222      221      0.03000     -
171      172      223      0.03000     -
171      223      222      0.03000     -
172      173      224      0.03000     -
172      224      223      0.03000     -
173      174      225      0.03000     -
173      225      224      0.03000     -
174      175      226      0.03000     -
174      226      225      0.03000     -
175      176      227      0.03000     -
175      227      226      0.03000     -
176      177      228      0.03000     -
176      228      227      0.03000     -
177      178      229      0.03000     -
177      229      228      0.03000     -
178      179      230      0.03000     -
178      230      229      0.03000     -
179      180      231      0.03000     -
179      231      230      0.03000     -
180      181      232      0.03000     -
180      232      231      0.03000     -
181      182      233      0.03000     -
181      233      232      0.03000     -
182      183      234      0.03000     -
182      234      233      0.03000     -
183      184      235      0.03000     -
183      235      234      0.03000     -
184      185      236      0.03000     -
184      236      235      0.03000     -
185      186      237      0.03000     -
185      237      236      0.03000     -
186      187      238      0.03000     -
186      238      237      0.03000     -
187      188      239      0.03000     -
187      239      238      0.03000     -
188      189      240      0.03000     -
188      240      239      0.03000     -
189      190      241      0.03000     -
189      241      240      0.03000     -
190      191      242      0.03000     -
190      242      241      0.03000     -
191      192      243      0.03000     -
191      243      242      0.03000     -
192      193      244      0.03000     -
192      244      243      0.03000     -
193      194      245      0.03000     -
193      245      244      0.03000     -
194      195      246      0.03000     -
194      246      245      0.03000     -
195      196      247      0.03000     -
195      247      246      0.03000     -
196      197      248      0.03000     -
196      248      247      0.03000     -
197      198      249      0.03000     -
197      249      248      0.03000     -
198      199      250      0.03000     -
198      250      249      0.03000     -
199      200      251      0.03000     -
199      251      250      0.03000     -
200      201      252      0.03000     -
200      252      251      0.03000     -
201      202      253      0.03000     -
201      253      252      0.03000     -
202      203      254      0.03000     -
202      254      253      0.03000     -
204      205      256      0.03000     -
204      256      255      0.03000     -
205      206      257      0.03000     -
205      257      256      0.03000     -
206      207      258      0.03000     -
206      258      257      0.03000     -
207      208      259      0.03000     -
207      259      258      0.03000     -
208      209      260      0.03000     -
208      260      259      0.03000     -
209      210      261      0.03000     -
209      261      260      0.03000     -
210      211      262      0.03000     -
210      262      261      0.03000     -
211      212      263      0.03000     -
211      263      262      0.03000     -
212      213      264      0.03000     -
212      264      263      0.03000     -
213      214      265      0.03000     -
213      265      264      0.03000     -
214      215      266      0.03000     -
214      266      265      0.03000     -
215      216      267      0.03000     -
215      267      266      0.03000     -
216      217      268      0.03000     -
216      268      267      0.03000     -
217      218      269      0.03000     -
217      269      268      0.03000     -
218      219      270      0.03000     -
218      270      269      0.03000     -
219      220      271      0.03000     -
219      271      270      0.03000     -
220      221      272      0.03000     -
220      272      271      0.03000     -
221      222      273      0.03000     -
221      273      272      0.03000     -
222      223      274      0.03000     -
222      274      273      0.03000     -
223      224      275      0.03000     -
223      275      274      0.03000     -
224      225      276      0.03000     -
224      276      275      0.03000     -
225      226      277      0.03000     -
225      277      276      0.03000     -
226      227      278      0.03000     -
226      278      277      0.03000     -
227      228      279      0.03000     -
227      279      278      0.03000     -
228      229      280      0.03000     -
228      280      279      0.03000     -
229      230      281      0.03000     -
229      281      280      0.03000     -
230      231      282      0.03000     -
230      282      281      0.03000     -
231      232      283      0.03000     -
231      283      282      0.03000     -
232      233      284      0.03000     -
232      284      283      0.03000     -
233      234      285      0.03000     -
233      285      284      0.03000     -
234      235      286      0.03000     -
234      286      285      0.03000     -
235      236      287      0.03000     -
235      287      286      0.03000     -
236      237      288      0.03000     -
236      288      287      0.03000     -
237      238      289      0.03000     -
237      289      288      0.03000     -
238      239      290      0.03000     -
238      290      289      0.03000     -
239      240      291      0.03000     -
239      291      290      0.03000     -
240      241      292      0.03000     -
240      292      291      0.03000     -
241      242      293      0.03000     -
241      293      292      0.03000     -
242      243      294      0.03000     -
242      294      293      0.03000     -
243      244      295      0.03000     -
243      295      294      0.03000     -
244      245      296      0.03000     -
244      296      295      0.03000     -
245      246      297      0.03000     -
245      297      296      0.03000     -
246      247      298      0.03000     -
246      298      297      0.03000     -
247      248      299      0.03000     -
247      299      298      0.03000     -
248      249      300      0.03000     -
248      300      299      0.03000     -
249      250      301      0.03000     -
249      301      300      0.03000     -
250      251      302      0.03000     -
250      302      301      0.03000     -
251      252      303      0.03000     -
251      303      302      0.03000     -
252      253      304      0.03000     -
252      304      303      0.03000     -
253      254      305      0.03000     -
253      305      304      0.03000     -
255      256      307      0.03000     -
255      307      306      0.03000     -
256      257      308      0.03000     -
256      308      307      0.03000     -
257      258      309      0.03000     -
257      309      308      0.03000     -
258      259      310      0.03000     -
258      310      309      0.03000     -
259      260      311      0.03000     -
259      311      310      0.03000     -
260      261      312      0.03000     -
260      312      311      0.03000     -
261      262      313      0.03000     -
261      313      312      0.03000     -
262      263      314      0.03000     -
262      314      313      0.03000     -
263      264      315      0.03000     -
263      315      314      0.03000     -
264      265      316      0.03000     -
264      316      315      0.03000     -
265      266      317      0.03000     -
265      317      316      0.03000     -
266      267      318      0.03000     -
266      318      317      0.03000     -
267      268      319      0.03000     -
267      319      318      0.03000     -
268      269      320      0.03000     -
268      320      319      0.03000     -
269      270      321      0.03000     -
269      321      320      0.03000     -
270      271      322      0.03000     -
270      322      321      0.03000     -
271      272      323      0.03000     -
271      323      322      0.03000     -
272      273      324      0.03000     -
272      324      323      0.03000     -
273      274      325      0.03000     -
273      325      324      0.03000     -
274      275      326      0.03000     -
274      326      325      0.03000     -
275      276      327      0.03000     -
275      327      326      0.03000     -
276      277      328      0.03000     -
276      328      327      0.03000     -
277      278      329      0.03000     -
277      329      328      0.03000     -
278      279      330      0.03000     -
278      330      329      0.03000     -
279      280      331      0.03000     -
279      331      330      0.03000     -
280      281      332      0.03000     -
280      332      331      0.03000     -
281      282      333      0.03000     -
281      333      332      0.03000     -
282      283      334      0.03000     -
282      334      333      0.03000     -
283      284      335      0.03000     -
283      335      334      0.03000     -
284      285      336      0.03000     -
284      336      335      0.03000     -
285      286      337      0.03000     -
285      337      336      0.03000     -
286      287      338      0.03000     -
286      338      337      0.03000     -
287      288      339      0.03000     -
287      339      338      0.03000     -
288      289      340      0.03000     -
288      340      339      0.03000     -
289      290      341      0.03000     -
289      341      340      0.03000     -
290      291      342      0.03000     -
290      342      341      0.03000     -
291      292      343      0.03000     -
291      343      342      0.03000     -
292      293      344      0.03000     -
292      344      343      0.03000     -
293      294      345      0.03000     -
293      345      344      0.03000     -
294      295      346      0.03000     -
294      346      345      0.03000     -
295      296      347      0.03000     -
295      347      346      0.03000     -
296      297      348      0.03000     -
296      348      347      0.03000     -
297      298      349      0.03000     -
297      349      348      0.03000     -
298      299      350      0.03000     -
298      350      349      0.03000     -
299      300      351      0.03000     -
299      351      350      0.03000     -
300      301      352      0.03000     -
300      352      351      0.03000     -
301      302      353      0.03000     -
301      353      352      0.03000     -
302      303      354      0.03000     -
302      354      353      0.03000     -
303      304      355      0.03000     -
303      355      354      0.03000     -
304      305      356      0.03000     -
304      356      355      0.03000     -
306      307      358      0.03000     -
306      358      357      0.03000     -
307      308      359      0.03000     -
307      359      358      0.03000     -
308      309      360      0.03000     -
308      360      359      0.03000     -
309      310      361      0.03000     -
309      361      360      0.03000     -
310      311      362      0.03000     -
310      362      361      0.03000     -
311      312      363      0.03000     -
311      363      362      0.03000     -
312      313      364      0.03000     -
312      364      363      0.03000     -
313      314      365      0.03000     -
313      365      364      0.03000     -
314      315      366      0.03000     -
314      366      365      0.03000     -
315      316      367      0.03000     -
315      367      366      0.03000     -
316      317      368      0.03000     -
316      368      367      0.03000     -
317      318      369      0.03000     -
317      369      368      0.03000     -
318      319      370      0.03000     -
318      370      369      0.03000     -
319      320      371      0.03000     -
319      371      370      0.03000     -
320      321      372      0.03000     -
320      372      371      0.03000     -
321      322      373      0.03000     -
321      373      372      0.03000     -
322      323      374      0.03000     -
322      374      373      0.03000     -
323      324      375      0.03000     -
323      375      374      0.03000     -
324      325      376      0.03000     -
324      376      375      0.03000     -
325      326      377      0.03000     -
325      377      376      0.03000     -
326      327      378      0.03000     -
326      378      377      0.03000     -
327      328      379      0.03000     -
327      379      378      0.03000     -
328      329      380      0.03000     -
328      380      379      0.03000     -
329      330      381      0.03000     -
329      381      380      0.03000     -
330      331      382      0.03000     -
330      382      381      0.03000     -
331      332      383      0.03000     -
331      383      382      0.03000     -
332      333      384      0.03000     -
332      384      383      0.03000     -
333      334      385      0.03000     -
333      385      384      0.03000     -
334      335      386      0.03000     -
334      386      385      0.03000     -
335      336      387      0.03000     -
335      387      386      0.03000     -
336      337      388      0.03000     -
336      388      387      0.03000     -
337      338      389      0.03000     -
337      389      388      0.03000     -
338      339      390      0.03000     -
338      390      389      0.03000     -
339      340      391      0.03000     -
339      391      390      0.03000     -
340      341      392      0.03000     -
340      392      391      0.03000     -
341      342      393      0.03000     -
341      393      392      0.03000     -
342      343      394      0.03000     -
342      394      393      0.03000     -
343      344      395      0.03000     -
343      395      394      0.03000     -
344      345      396      0.03000     -
344      396      395      0.03000     -
345      346      397      0.03000     -
345      397      396      0.03000     -
346      347      398      0.03000     -
346      398      397      0.03000     -
347      348      399      0.03000     -
347      399      398      0.03000     -
348      349      400      0.03000     -
348      400      399      0.03000     -
349      350      401      0.03000     -
349      401      400      0.03000     -
350      351      402      0.03000     -
350      402      401      0.03000     -
351      352      403      0.03000     -
351      403      402      0.03000     -
352      353      404      0.03000     -
352      404      403      0.03000     -
353      354      405      0.03000     -
353      405      404      0.03000     -
354      355      406      0.03000     -
354      406      405      0.03000     -
355      356      407      0.03000     -
355      407      406      0.03000     -
357      358      409      0.03000     -
357      409      408      0.03000     -
358      359      410      0.03000     -
358      410      409      0.03000     -
359      360      411      0.03000     -
359      411      410      0.03000     -
360      361      412      0.03000     -
360      412      411      0.03000     -
361      362      413      0.03000     -
361      413      412      0.03000     -
362      363      414      0.03000     -
362      414      413      0.03000     -
363      364      415      0.03000     -
363      415      414      0.03000     -
364      365      416      0.03000     -
364      416      415      0.03000     -
365      366      417      0.03000     -
365      417      416      0.03000     -
366      367      418      0.03000     -
366      418      417      0.03000     -
367      368      419      0.03000     -
367      419      418      0.03000     -
368      369      420      0.03000     -
368      420      419      0.03000     -
369      370      421      0.03000     -
369      421      420      0.03000     -
370      371      422      0.03000     -
370      422      421      0.03000     -
371      372      423      0.03000     -
371      423      422      0.03000     -
372      373      424      0.03000     -
372      424      423      0.03000     -
373      374      425      0.03000     -
373      425      424      0.03000     -
374      375      426      0.03000     -
374      426      425      0.03000     -
375      376      427      0.03000     -
375      427      426      0.03000     -
376      377      428      0.03000     -
376      428      427      0.03000     -
377      378      429      0.03000     -
377      429      428      0.03000     -
378      379      430      0.03000     -
378      430      429      0.03000     -
379      380      431      0.03000     -
379      431      430      0.03000     -
380      381      432      0.03000     -
380      432      431      0.03000     -
381      382      433      0.03000     -
381      433      432      0.03000     -
382      383      434      0.03000     -
382      434      433      0.03000     -
383      384      435      0.03000     -
383      435      434      0.03000     -
384      385      436      0.03000     -
384      436      435      0.03000     -
385      386      437      0.03000     -
385      437      436      0.03000     -
386      387      438      0.03000     -
386      438      437      0.03000     -
387      388      439      0.03000     -
387      439      438      0.03000     -
388      389      440      0.03000     -
388      440      439      0.03000     -
389      390      441      0.03000     -
389      441      440      0.03000     -
390      391      442      0.03000     -
390      442      441      0.03000     -
391      392      443      0.03000     -
391      443      442      0.03000     -
392      393      444      0.03000     -
392      444      443      0.03000     -
393      394      445      0.03000     -
393      445      444      0.03000     -
394      395      446      0.03000     -
394      446      445      0.03000     -
395      396      447      0.03000     -
395      447      446      0.03000     -
396      397      448      0.03000     -
396      448      447      0.03000     -
397      398      449      0.03000     -
397      449      448      0.03000     -
398      399      450      0.03000     -
398      450      449      0.03000     -
399      400      451      0.03000     -
399      451      450      0.03000     -
400      401      452      0.03000     -
400      452      451      0.03000     -
401      402      453      0.03000     -
401      453      452      0.03000     -
402      403      454      0.03000     -
402      454      453      0.03000     -
403      404      455      0.03000     -
403      455      454      0.03000     -
404      405      456      0.03000     -
404      456      455      0.03000     -
405      406      457      0.03000     -
405      457      456      0.03000     -
406      407      458      0.03000     -
406      458      457      0.03000     -
408      409      460      0.03000     -
408      460      459      0.03000     -
409      410      461      0.03000     -
409      461      460      0.03000     -
410      411      462      0.03000     -
410      462      461      0.03000     -
411      412      463      0.03000     -
411      463      462      0.03000     -
412      413      464      0.03000     -
412      464      463      0.03000     -
413      414      465      0.03000     -
413      465      464      0.03000     -
414      415      466      0.03000     -
414      466      465      0.03000     -
415      416      467      0.03000     -
415      467      466      0.03000     -
416      417      468      0.03000     -
416      468      467      0.03000     -
417      418      469      0.03000     -
417      469      468      0.03000     -
418      419      470      0.03000     -
418      470      469      0.03000     -
419      420      471      0.03000     -
419      471      470      0.03000     -
420      421      472      0.03000     -
420      472      471      0.03000     -
421      422      473      0.03000     -
421      473      472      0.03000     -
422      423      474      0.03000     -
422      474      473      0.03000     -
423      424      475      0.03000     -
423      475      474      0.03000     -
424      425      476      0.03000     -
424      476      475      0.03000     -
425      426      477      0.03000     -
425      477      476      0.03000     -
426      427      478      0.03000     -
426      478      477      0.03000     -
427      428      479      0.03000     -
427      479      478      0.03000     -
428      429      480      0.03000     -
428      480      479      0.03000     -
429      430      481      0.03000     -
429      481      480      0.03000     -
430      431      482      0.03000     -
430      482      481      0.03000     -
431      432      483      0.03000     -
431      483      482      0.03000     -
432      433      484      0.03000     -
432      484      483      0.03000     -
433      434      485      0.03000     -
433      485      484      0.03000     -
434      435      486      0.03000     -
434      486      485      0.03000     -
435      436      487      0.03000     -
435      487      486      0.03000     -
436      437      488      0.03000     -
436      488      487      0.03000     -
437      438      489      0.03000     -
437      489      488      0.03000     -
438      439      490      0.03000     -
438      490      489      0.03000     -
439      440      491      0.03000     -
439      491      490      0.03000     -
440      441      492      0.03000     -
440      492      491      0.03000     -
441      442      493      0.03000     -
441      493      492      0.03000     -
442      443      494      0.03000     -
442      494      493      0.03000     -
443      444      495      0.03000     -
443      495      494      0.03000     -
444      445      496      0.03000     -
444      496      495      0.03000     -
445      446      497      0.03000     -
445      497      496      0.03000     -
446      447      498      0.03000     -
446      498      497      0.03000     -
447      448      499      0.03000     -
447      499      498      0.03000     -
448      449      500      0.03000     -
448      500      499      0.03000     -
449      450      501      0.03000     -
449      501      500      0.03000     -
450      451      502      0.03000     -
450      502      501      0.03000     -
451      452      503      0.03000     -
451      503      502      0.03000     -
452      453      504      0.03000     -
452      504      503      0.03000     -
453      454      505      0.03000     -
453      505      504      0.03000     -
454      455      506      0.03000     -
454      506      505      0.03000     -
455      456      507      0.03000     -
455      507      506      0.03000     -
456      457      508      0.03000     -
456      508      507      0.03000     -
457      458      509      0.03000     -
457      509      508      0.03000     -
459      460      511      0.03000     -
459      511      510      0.03000     -
460      461      512      0.03000     -
460      512      511      0.03000     -
461      462      513      0.03000     -
461      513      512      0.03000     -
462      463      514      0.03000     -
462      514      513      0.03000     -
463      464      515      0.03000     -
463      515      514      0.03000     -
464      465      516      0.03000     -
464      516      515      0.03000     -
465      466      517      0.03000     -
465      517      516      0.03000     -
466      467      518      0.03000     -
466      518      517      0.03000     -
467      468      519      0.03000     -
467      519      518      0.03000     -
468      469      520      0.03000     -
468      520      519      0.03000     -
469      470      521      0.03000     -
469      521      520      0.03000     -
470      471      522      0.03000     -
470      522      521      0.03000     -
471      472      523      0.03000     -
471      523      522      0.03000     -
472      473      524      0.03000     -
472      524      523      0.03000     -
473      474      525      0.03000     -
473      525      524      0.03000     -
474      475      526      0.03000     -
474      526      525      0.03000     -
475      476      527      0.03000     -
475      527      526      0.03000     -
476      477      528      0.03000     -
476      528      527      0.03000     -
477      478      529      0.03000     -
477      529      528      0.03000     -
478      479      530      0.03000     -
478      530      529      0.03000     -
479      480      531      0.03000     -
479      531      530      0.03000     -
480      481      532      0.03000     -
480      532      531      0.03000     -
481      482      533      0.03000     -
481      533      532      0.03000     -
482      483      534      0.03000     -
482      534      533      0.03000     -
483      484      535      0.03000     -
483      535      534      0.03000     -
484      485      536      0.03000     -
484      536      535      0.03000     -
485      486      537      0.03000     -
485      537      536      0.03000     -
486      487      538      0.03000     -
486      538      537      0.03000     -
487      488      539      0.03000     -
487      539      538      0.03000     -
488      489      540      0.03000     -
488      540      539      0.03000     -
489      490      541      0.03000     -
489      541      540      0.03000     -
490      491      542      0.03000     -
490      542      541      0.03000     -
491      492      543      0.03000     -
491      543      542      0.03000     -
492      493      544      0.03000     -
492      544      543      0.03000     -
493      494      545      0.03000     -
493      545      544      0.03000     -
494      495      546      0.03000     -
494      546      545      0.03000     -
495      496      547      0.03000     -
495      547      546      0.03000     -
496      497      548      0.03000     -
496      548      547      0.03000     -
497      498      549      0.03000     -
497      549      548      0.03000     -
498      499      550      0.03000     -
498      550      549      0.03000     -
499      500      551      0.03000     -
499      551      550      0.03000     -
500      501      552      0.03000     -
500      552      551      0.03000     -
501      502      553      0.03000     -
501      553      552      0.03000     -
502      503      554      0.03000     -
502      554      553      0.03000     -
503      504      555      0.03000     -
503      555      554      0.03000     -
504      505      556      0.03000     -
504      556      555      0.03000     -
505      506      557      0.03000     -
505      557      556      0.03000     -
506      507      558      0.03000     -
506      558      557      0.03000     -
507      508      559      0.03000     -
507      559      558      0.03000     -
508      509      560      0.03000     -
508      560      559      0.03000     -
510      511      562      0.03000     -
510      562      561      0.03000     -
511      512      563      0.03000     -
511      563      562      0.03000     -
512      513      564      0.03000     -
512      564      563      0.03000     -
513      514      565      0.03000     -
513      565      564      0.03000     -
514      515      566      0.03000     -
514      566      565      0.03000     -
515      516      567      0.03000     -
515      567      566      0.03000     -
516      517      568      0.03000     -
516      568      567      0.03000     -
517      518      569      0.03000     -
517      569      568      0.03000     -
518      519      570      0.03000     -
518      570      569      0.03000     -
519      520      571      0.03000     -
519      571      570      0.03000     -
520      521      572      0.03000     -
520      572      571      0.03000     -
521      522      573      0.03000     -
521      573      572      0.03000     -
522      523      574      0.03000     -
522      574      573      0.03000     -
523      524      575      0.03000     -
523      575      574      0.03000     -
524      525      576      0.03000     -
524      576      575      0.03000     -
525      526      577      0.03000     -
525      577      576      0.03000     -
526      527      578      0.03000     -
526      578      577      0.03000     -
527      528      579      0.03000     -
527      579      578      0.03000     -
528      529      580      0.03000     -
528      580      579      0.03000     -
529      530      581      0.03000     -
529      581      580      0.03000     -
530      531      582      0.03000     -
530      582      581      0.03000     -
531      532      583      0.03000     -
531      583      582      0.03000     -
532      533      584      0.03000     -
532      584      583      0.03000     -
533      534      585      0.03000     -
533      585      584      0.03000     -
534      535      586      0.03000     -
534      586      585      0.03000     -
535      536      587      0.03000     -
535      587      586      0.03000     -
536      537      588      0.03000     -
536      588      587      0.03000     -
537      538      589      0.03000     -
537      589      588      0.03000     -
538      539      590      0.03000     -
538      590      589      0.03000     -
539      540      591      0.03000     -
539      591      590      0.03000     -
540      541      592      0.03000     -
540      592      591      0.03000     -
541      542      593      0.03000     -
541      593      592      0.03000     -
542      543      594      0.03000     -
542      594      593      0.03000     -
543      544      595      0.03000     -
543      595      594      0.03000     -
544      545      596      0.03000     -
544      596      595      0.03000     -
545      546      597      0.03000     -
545      597      596      0.03000     -
546      547      598      0.03000     -
546      598      597      0.03000     -
547      548      599      0.03000     -
547      599      598      0.03000     -
548      549      600      0.03000     -
548      600      599      0.03000     -
549      550      601      0.03000     -
549      601      600      0.03000     -
550      551      602      0.03000     -
550      602      601      0.03000     -
551      552      603      0.03000     -
551      603      602      0.03000     -
552      553      604      0.03000     -
552      604      603      0.03000     -
553      554      605      0.03000     -
553      605      604      0.03000     -
554      555      606      0.03000     -
554      606      605      0.03000     -
555      556      607      0.03000     -
555      607      606      0.03000     -
556      557      608      0.03000     -
556      608      607      0.03000     -
557      558      609      0.03000     -
557      609      608      0.03000     -
558      559      610      0.03000     -
558      610      609      0.03000     -
559      560      611      0.03000     -
559      611      610      0.03000     -
561      562      613      0.03000     -
561      613      612      0.03000     -
562      563      614      0.03000     -
562      614      613      0.03000     -
563      564      615      0.03000     -
563      615      614      0.03000     -
564      565      616      0.03000     -
564      616      615      0.03000     -
565      566      617      0.03000     -
565      617      616      0.03000     -
566      567      618      0.03000     -
566      618      617      0.03000     -
567      568      619      0.03000     -
567      619      618      0.03000     -
568      569      620      0.03000     -
568      620      619      0.03000     -
569      570      621      0.03000     -
569      621      620      0.03000     -
570      571      622      0.03000     -
570      622      621      0.03000     -
571      572      623      0.03000     -
571      623      622      0.03000     -
572      573      624      0.03000     -
572      624      623      0.03000     -
573      574      625      0.03000     -
573      625      624      0.03000     -
574      575      626      0.03000     -
574      626      625      0.03000     -
575      576      627      0.03000     -
575      627      626      0.03000     -
576      577      628      0.03000     -
576      628      627      0.03000     -
577      578      629      0.03000     -
577      629      628      0.03000     -
578      579      630      0.03000     -
578      630      629      0.03000     -
579      580      631      0.03000     -
579      631      630      0.03000     -
580      581      632      0.03000     -
580      632      631      0.03000     -
581      582      633      0.03000     -
581      633      632      0.03000     -
582      583      634      0.03000     -
582      634      633      0.03000     -
583      584      635      0.03000     -
583      635      634      0.03000     -
584      585      636      0.03000     -
584      636      635      0.03000     -
585      586      637      0.03000     -
585      637      636      0.03000     -
586      587      638      0.03000     -
586      638      637      0.03000     -
587      588      639      0.03000     -
587      639      638      0.03000     -
588      589      640      0.03000     -
588      640      639      0.03000     -
589      590      641      0.03000     -
589      641      640      0.03000     -
590      591      642      0.03000     -
590      642      641      0.03000     -
591      592      643      0.03000     -
591      643      642      0.03000     -
592      593      644      0.03000     -
592      644      643      0.03000     -
593      594      645      0.03000     -
593      645      644      0.03000     -
594      595      646      0.03000     -
594      646      645      0.03000     -
595      596      647      0.03000     -
595      647      646      0.03000     -
596      597      648      0.03000     -
596      648      647      0.03000     -
597      598      649      0.03000     -
597      649      648      0.03000     -
598      599      650      0.03000     -
598      650      649      0.03000     -
599      600      651      0.03000     -
599      651      650      0.03000     -
600      601      652      0.03000     -
600      652      651      0.03000     -
601      602      653      0.03000     -
601      653      652      0.03000     -
602      603      654      0.03000     -
602      654      653      0.03000     -
603      604      655      0.03000     -
603      655      654      0.03000     -
604      605      656      0.03000     -
604      656      655      0.03000     -
605      606      657      0.03000     -
605      657      656      0.03000     -
606      607      658      0.03000     -
606      658      657      0.03000     -
607      608      659      0.03000     -
607      659      658      0.03000     -
608      609      660      0.03000     -
608      660      659      0.03000     -
609      610      661      0.03000     -
609      661      660      0.03000     -
610      611      662      0.03000     -
610      662      661      0.03000     -
612      613      664      0.03000     -
612      664      663      0.03000     -
613      614      665      0.03000     -
613      665      664      0.03000     -
614      615      666      0.03000     -
614      666      665      0.03000     -
615      616      667      0.03000     -
615      667      666      0.03000     -
616      617      668      0.03000     -
616      668      667      0.03000     -
617      618      669      0.03000     -
617      669      668      0.03000     -
618      619      670      0.03000     -
618      670      669      0.03000     -
619      620      671      0.03000     -
619      671      670      0.03000     -
620      621      672      0.03000     -
620      672      671      0.03000     -
621      622      673      0.03000     -
621      673      672      0.03000     -
622      623      674      0.03000     -
622      674      673      0.03000     -
623      624      675      0.03000     -
623      675      674      0.03000     -
624      625      676      0.03000     -
624      676      675      0.03000     -
625      626      677      0.03000     -
625      677      676      0.03000     -
626      627      678      0.03000     -
626      678      677      0.03000     -
627      628      679      0.03000     -
627      679      678      0.03000     -
628      629      680      0.03000     -
628      680      679      0.03000     -
629      630      681      0.03000     -
629      681      680      0.03000     -
630      631      682      0.03000     -
630      682      681      0.03000     -
631      632      683      0.03000     -
631      683      682      0.03000     -
632      633      684      0.03000     -
632      684      683      0.03000     -
633      634      685      0.03000     -
633      685      684      0.03000     -
634      635      686      0.03000     -
634      686      685      0.03000     -
635      636      687      0.03000     -
635      687      686      0.03000     -
636      637      688      0.03000     -
636      688      687      0.03000     -
637      638      689      0.03000     -
637      689      688      0.03000     -
638      639      690      0.03000     -
638      690      689      0.03000     -
639      640      691      0.03000     -
639      691      690      0.03000     -
640      641      692      0.03000     -
640      692      691      0.03000     -
641      642      693      0.03000     -
641      693      692      0.03000     -
642      643      694      0.03000     -
642      694      693      0.03000     -
643      644      695      0.03000     -
643      695      694      0.03000     -
644      645      696      0.03000     -
644      696      695      0.03000     -
645      646      697      0.03000     -
645      697      696      0.03000     -
646      647      698      0.03000     -
646      698      697      0.03000     -
647      648      699      0.03000     -
647      699      698      0.03000     -
648      649      700      0.03000     -
648      700      699      0.03000     -
649      650      701      0.03000     -
649      701      700      0.03000     -
650      651      702      0.03000     -
650      702      701      0.03000     -
651      652      703      0.03000     -
651      703      702      0.03000     -
652      653      704      0.03000     -
652      704      703      0.03000     -
653      654      705      0.03000     -
653      705      704      0.03000     -
654      655      706      0.03000     -
654      706      705      0.03000     -
655      656      707      0.03000     -
655      707      706      0.03000     -
656      657      708      0.03000     -
656      708      707      0.03000     -
657      658      709      0.03000     -
657      709      708      0.03000     -
658      659      710      0.03000     -
658      710      709      0.03000     -
659      660      711      0.03000     -
659      711      710      0.03000     -
660      661      712      0.03000     -
660      712      711      0.03000     -
661      662      713      0.03000     -
661      713      712      0.03000     -
663      664      715      0.03000     -
663      715      714      0.03000     -
664      665      716      0.03000     -
664      716      715      0.03000     -
665      666      717      0.03000     -
665      717      716      0.03000     -
666      667      718      0.03000     -
666      718      717      0.03000     -
667      668      719      0.03000     -
667      719      718      0.03000     -
668      669      720      0.03000     -
668      720      719      0.03000     -
669      670      721      0.03000     -
669      721      720      0.03000     -
670      671      722      0.03000     -
670      722      721      0.03000     -
671      672      723      0.03000     -
671      723      722      0.03000     -
672      673      724      0.03000     -
672      724      723      0.03000     -
673      674      725      0.03000     -
673      725      724      0.03000     -
674      675      726      0.03000     -
674      726      725      0.03000     -
675      676      727      0.03000     -
675      727      726      0.03000     -
676      677      728      0.03000     -
676      728      727      0.03000     -
677      678      729      0.03000     -
677      729      728      0.03000     -
678      679      730      0.03000     -
678      730      729      0.03000     -
679      680      731      0.03000     -
679      731      730      0.03000     -
680      681      732      0.03000     -
680      732      731      0.03000     -
681      682      733      0.03000     -
681      733      732      0.03000     -
682      683      734      0.03000     -
682      734      733      0.03000     -
683      684      735      0.03000     -
683      735      734      0.03000     -
684      685      736      0.03000     -
684      736      735      0.03000     -
685      686      737      0.03000     -
685      737      736      0.03000     -
686      687      738      0.03000     -
686      738      737      0.03000     -
687      688      739      0.03000     -
687      739      738      0.03000     -
688      689      740      0.03000     -
688      740      739      0.03000     -
689      690      741      0.03000     -
689      741      740      0.03000     -
690      691      742      0.03000     -
690      742      741      0.03000     -
691      692      743      0.03000     -
691      743      742      0.03000     -
692      693      744      0.03000     -
692      744      743      0.03000     -
693      694      745      0.03000     -
693      745      744      0.03000     -
694      695      746      0.03000     -
694      746      745      0.03000     -
695      696      747      0.03000     -
695      747      746      0.03000     -
696      697      748      0.03000     -
696      748      747      0.03000     -
697      698      749      0.03000     -
697      749      748      0.03000     -
698      699      750      0.03000     -
698      750      749      0.03000     -
699      700      751      0.03000     -
699      751      750      0.03000     -
700      701      752      0.03000     -
700      752      751      0.03000     -
701      702      753      0.03000     -
701      753      752      0.03000     -
702      703      754      0.03000     -
702      754      753      0.03000     -
703      704      755      0.03000     -
703      755      754      0.03000     -
704      705      756      0.03000     -
704      756      755      0.03000     -
705      706      757      0.03000     -
705      757      756      0.03000     -
706      707      758      0.03000     -
706      758      757      0.03000     -
707      708      759      0.03000     -
707      759      758      0.03000     -
708      709      760      0.03000     -
708      760      759      0.03000     -
709      710      761      0.03000     -
709      761      760      0.03000     -
710      711      762      0.03000     -
710      762      761      0.03000     -
711      712      763      0.03000     -
711      763      762      0.03000     -
712      713      764      0.03000     -
712      764      763      0.03000     -
714      715      766      0.03000     -
714      766      765      0.03000     -
715      716      767      0.03000     -
715      767      766      0.03000     -
716      717      768      0.03000     -
716      768      767      0.03000     -
717      718      769      0.03000     -
717      769      768      0.03000     -
718      719      770      0.03000     -
718      770      769      0.03000     -
719      720      771      0.03000     -
719      771      770      0.03000     -
720      721      772      0.03000     -
720      772      771      0.03000     -
721      722      773      0.03000     -
721      773      772      0.03000     -
722      723      774      0.03000     -
722      774      773      0.03000     -
723      724      775      0.03000     -
723      775      774      0.03000     -
724      725      776      0.03000     -
724      776      775      0.03000     -
725      726      777      0.03000     -
725      777      776      0.03000     -
726      727      778      0.03000     -
726      778      777      0.03000     -
727      728      779      0.03000     -
727      779      778      0.03000     -
728      729      780      0.03000     -
728      780      779      0.03000     -
729      730      781      0.03000     -
729      781      780      0.03000     -
730      731      782      0.03000     -
730      782      781      0.03000     -
731      732      783      0.03000     -
731      783      782      0.03000     -
732      733      784      0.03000     -
732      784      783      0.03000     -
733      734      785      0.03000     -
733      785      784      0.03000     -
734      735      786      0.03000     -
734      786      785      0.03000     -
735      736      787      0.03000     -
735      787      786      0.03000     -
736      737      788      0.03000     -
736      788      787      0.03000     -
737      738      789      0.03000     -
737      789      788      0.03000     -
738      739      790      0.03000     -
738      790      789      0.03000     -
739      740      791      0.03000     -
739      791      790      0.03000     -
740      741      792      0.03000     -
740      792      791      0.03000     -
741      742      793      0.03000     -
741      793      792      0.03000     -
742      743      794      0.03000     -
742      794      793      0.03000     -
743      744      795      0.03000     -
743      795      794      0.03000     -
744      745      796      0.03000     -
744      796      795      0.03000     -
745      746      797      0.03000     -
745      797      796      0.03000     -
746      747      798      0.03000     -
746      798      797      0.03000     -
747      748      799      0.03000     -
747      799      798      0.03000     -
748      749      800      0.03000     -
748      800      799      0.03000     -
749      750      801      0.03000     -
749      801      800      0.03000     -
750      751      802      0.03000     -
750      802      801      0.03000     -
751      752      803      0.03000     -
751      803      802      0.03000     -
752      753      804      0.03000     -
752      804      803      0.03000     -
753      754      805      0.03000     -
753      805      804      0.03000     -
754      755      806      0.03000     -
754      806      805      0.03000     -
755      756      807      0.03000     -
755      807      806      0.03000     -
756      757      808      0.03000     -
756      808      807      0.03000     -
757      758      809      0.03000     -
757      809      808      0.03000     -
758      759      810      0.03000     -
758      810      809      0.03000     -
759      760      811      0.03000     -
759      811      810      0.03000     -
760      761      812      0.03000     -
760      812      811      0.03000     -
761      762      813      0.03000     -
761      813      812      0.03000     -
762      763      814      0.03000     -
762      814      813      0.03000     -
763      764      815      0.03000     -
763      815      814      0.03000     -
765      766      817      0.03000     -
765      817      816      0.03000     -
766      767      818      0.03000     -
766      818      817      0.03000     -
767      768      819      0.03000     -
767      819      818      0.03000     -
768      769      820      0.03000     -
768      820      819      0.03000     -
769      770      821      0.03000     -
769      821      820      0.03000     -
770      771      822      0.03000     -
770      822      821      0.03000     -
771      772      823      0.03000     -
771      823      822      0.03000     -
772      773      824      0.03000     -
772      824      823      0.03000     -
773      774      825      0.03000     -
773      825      824      0.03000     -
774      775      826      0.03000     -
774      826      825      0.03000     -
775      776      827      0.03000     -
775      827      826      0.03000     -
776      777      828      0.03000     -
776      828      827      0.03000     -
777      778      829      0.03000     -
777      829      828      0.03000     -
778      779      830      0.03000     -
778      830      829      0.03000     -
779      780      831      0.03000     -
779      831      830      0.03000     -
780      781      832      0.03000     -
780      832      831      0.03000     -
781      782      833      0.03000     -
781      833      832      0.03000     -
782      783      834      0.03000     -
782      834      833      0.03000     -
783      784      835      0.03000     -
783      835      834      0.03000     -
784      785      836      0.03000     -
784      836      835      0.03000     -
785      786      837      0.03000     -
785      837      836      0.03000     -
786      787      838      0.03000     -
786      838      837      0.03000     -
787      788      839      0.03000     -
787      839      838      0.03000     -
788      789      840      0.03000     -
788      840      839      0.03000     -
789      790      841      0.03000     -
789      841      840      0.03000     -
790      791      842      0.03000     -
790      842      841      0.03000     -
791      792      843      0.03000     -
791      843      842      0.03000     -
792      793      844      0.03000     -
792      844      843      0.03000     -
793      794      845      0.03000     -
793      845      844      0.03000     -
794      795      846      0.03000     -
794      846      845      0.03000     -
795      796      847      0.03000     -
795      847      846      0.03000     -
796      797      848      0.03000     -
796      848      847      0.03000     -
797      798      849      0.03000     -
797      849      848      0.03000     -
798      799      850      0.03000     -
798      850      849      0.03000     -
799      800      851      0.03000     -
799      851      850      0.03000     -
800      801      852      0.03000     -
800      852      851      0.03000     -
801      802      853      0.03000     -
801      853      852      0.03000     -
802      803      854      0.03000     -
802      854      853      0.03000     -
803      804      855      0.03000     -
803      855      854      0.03000     -
804      805      856      0.03000     -
804      856      855      0.03000     -
805      806      857      0.03000     -
805      857      856      0.03000     -
806      807      858      0.03000     -
806      858      857      0.03000     -
807      808      859      0.03000     -
807      859      858      0.03000     -
808      809      860      0.03000     -
808      860      859      0.03000     -
809      810      861      0.03000     -
809      861      860      0.03000     -
810      811      862      0.03000     -
810      862      861      0.03000     -
811      812      863      0.03000     -
811      863      862      0.03000     -
812      813      864      0.03000     -
812      864      863      0.03000     -
813      814      865      0.03000     -
813      865      864      0.03000     -
814      815      866      0.03000     -
814      866      865      0.03000     -
816      817      868      0.03000     -
816      868      867      0.03000     -
817      818      869      0.03000     -
817      869      868      0.03000     -
818      819      870      0.03000     -
818      870      869      0.03000     -
819      820      871      0.03000     -
819      871      870      0.03000     -
820      821      872      0.03000     -
820      872      871      0.03000     -
821      822      873      0.03000     -
821      873      872      0.03000     -
822      823      874      0.03000     -
822      874      873      0.03000     -
823      824      875      0.03000     -
823      875      874      0.03000     -
824      825      876      0.03000     -
824      876      875      0.03000     -
825      826      877      0.03000     -
825      877      876      0.03000     -
826      827      878      0.03000     -
826      878      877      0.03000     -
827      828      879      0.03000     -
827      879      878      0.03000     -
828      829      880      0.03000     -
828      880      879      0.03000     -
829      830      881      0.03000     -
829      881      880      0.03000     -
830      831      882      0.03000     -
830      882      881      0.03000     -
831      832      883      0.03000     -
831      883      882      0.03000     -
832      833      884      0.03000     -
832      884      883      0.03000     -
833      834      885      0.03000     -
833      885      884      0.03000     -
834      835      886      0.03000     -
834      886      885      0.03000     -
835      836      887      0.03000     -
835      887      886      0.03000     -
836      837      888      0.03000     -
836      888      887      0.03000     -
837      838      889      0.03000     -
837      889      888      0.03000     -
838      839      890      0.03000     -
838      890      889      0.03000     -
839      840      891      0.03000     -
839      891      890      0.03000     -
840      841      892      0.03000     -
840      892      891      0.03000     -
841      842      893      0.03000     -
841      893      892      0.03000     -
842      843      894      0.03000     -
842      894      893      0.03000     -
843      844      895      0.03000     -
843      895      894      0.03000     -
844      845      896      0.03000     -
844      896      895      0.03000     -
845      846      897      0.03000     -
845      897      896      0.03000     -
846      847      898      0.03000     -
846      898      897      0.03000     -
847      848      899      0.03000     -
847      899      898      0.03000     -
848      849      900      0.03000     -
848      900      899      0.03000     -
849      850      901      0.03000     -
849      901      900      0.03000     -
850      851      902      0.03000     -
850      902      901      0.03000     -
851      852      903      0.03000     -
851      903      902      0.03000     -
852      853      904      0.03000     -
852      904      903      0.03000     -
853      854      905      0.03000     -
853      905      904      0.03000     -
854      855      906      0.03000     -
854      906      905      0.03000     -
855      856      907      0.03000     -
855      907      906      0.03000     -
856      857      908      0.03000     -
856      908      907      0.03000     -
857      858      909      0.03000     -
857      909      908      0.03000     -
858      859      910      0.03000     -
858      910      909      0.03000     -
859      860      911      0.03000     -
859      911      910      0.03000     -
860      861      912      0.03000     -
860      912      911      0.03000     -
861      862      913      0.03000     -
861      913      912      0.03000     -
862      863      914      0.03000     -
862      914      913      0.03000     -
863      864      915      0.03000     -
863      915      914      0.03000     -
864      865      916      0.03000     -
864      916      915      0.03000     -
865      866      917      0.03000     -
865      917      916      0.03000     -
867      868      919      0.03000     -
867      919      918      0.03000     -
868      869      920      0.03000     -
868      920      919      0.03000     -
869      870      921      0.03000     -
869      921      920      0.03000     -
870      871      922      0.03000     -
870      922      921      0.03000     -
871      872      923      0.03000     -
871      923      922      0.03000     -
872      873      924      0.03000     -
872      924      923      0.03000     -
873      874      925      0.03000     -
873      925      924      0.03000     -
874      875      926      0.03000     -
874      926      925      0.03000     -
875      876      927      0.03000     -
875      927      926      0.03000     -
876      877      928      0.03000     -
876      928      927      0.03000     -
877      878      929      0.03000     -
877      929      928      0.03000     -
878      879      930      0.03000     -
878      930      929      0.03000     -
879      880      931      0.03000     -
879      931      930      0.03000     -
880      881      932      0.03000     -
880      932      931      0.03000     -
881      882      933      0.03000     -
881      933      932      0.03000     -
882      883      934      0.03000     -
882      934      933      0.03000     -
883      884      935      0.03000     -
883      935      934      0.03000     -
884      885      936      0.03000     -
884      936      935      0.03000     -
885      886      937      0.03000     -
885      937      936      0.03000     -
886      887      938      0.03000     -
886      938      937      0.03000     -
887      888      939      0.03000     -
887      939      938      0.03000     -
888      889      940      0.03000     -
888      940      939      0.03000     -
889      890      941      0.03000     -
889      941      940      0.03000     -
890      891      942      0.03000     -
890      942      941      0.03000     -
891      892      943      0.03000     -
891      943      942      0.03000     -
892      893      944      0.03000     -
892      944      943      0.03000     -
893      894      945      0.03000     -
893      945      944      0.03000     -
894      895      946      0.03000     -
894      946      945      0.03000     -
895      896      947      0.03000     -
895      947      946      0.03000     -
896      897      948      0.03000     -
896      948      947      0.03000     -
897      898      949      0.03000     -
897      949      948      0.03000     -
898      899      950      0.03000     -
898      950      949      0.03000     -
899      900      951      0.03000     -
899      951      950      0.03000     -
900      901      952      0.03000     -
900      952      951      0.03000     -
901      902      953      0.03000     -
901      953      952      0.03000     -
902      903      954      0.03000     -
902      954      953      0.03000     -
903      904      955      0.03000     -
903      955      954      0.03000     -
904      905      956      0.03000     -
904      956      955      0.03000     -
905      906      957      0.03000     -
905      957      956      0.03000     -
906      907      958      0.03000     -
906      958      957      0.03000     -
907      908      959      0.03000     -
907      959      958      0.03000     -
908      909      960      0.03000     -
908      960      959      0.03000     -
909      910      961      0.03000     -
909      961      960      0.03000     -
910      911      962      0.03000     -
910      962      961      0.03000     -
911      912      963      0.03000     -
911      963      962      0.03000     -
912      913      964      0.03000     -
912      964      963      0.03000     -
913      914      965      0.03000     -
913      965      964      0.03000     -
914      915      966      0.03000     -
914      966      965      0.03000     -
915      916      967      0.03000     -
915      967      966      0.03000     -
916      917      968      0.03000     -
916      968      967      0.03000     -
918      919      970      0.03000     -
918      970      969      0.03000     -
919      920      971      0.03000     -
919      971      970      0.03000     -
920      921      972      0.03000     -
920      972      971      0.03000     -
921      922      973      0.03000     -
921      973      972      0.03000     -
922      923      974      0.03000     -
922      974      973      0.03000     -
923      924      975      0.03000     -
923      975      974      0.03000     -
924      925      976      0.03000     -
924      976      975      0.03000     -
925      926      977      0.03000     -
925      977      976      0.03000     -
926      927      978      0.03000     -
926      978      977      0.03000     -
927      928      979      0.03000     -
927      979      978      0.03000     -
928      929      980      0.03000     -
928      980      979      0.03000     -
929      930      981      0.03000     -
929      981      980      0.03000     -
930      931      982      0.03000     -
930      982      981      0.03000     -
931      932      983      0.03000     -
931      983      982      0.03000     -
932      933      984      0.03000     -
932      984      983      0.03000     -
933      934      985      0.03000     -
933      985      984      0.03000     -
934      935      986      0.03000     -
934      986      985      0.03000     -
935      936      987      0.03000     -
935      987      986      0.03000     -
936      937      988      0.03000     -
936      988      987      0.03000     -
937      938      989      0.03000     -
937      989      988      0.03000     -
938      939      990      0.03000     -
938      990      989      0.03000     -
939      940      991      0.03000     -
939      991      990      0.03000     -
940      941      992      0.03000     -
940      992      991      0.03000     -
941      942      993      0.03000     -
941      993      992      0.03000     -
942      943      994      0.03000     -
942      994      993      0.03000     -
943      944      995      0.03000     -
943      995      994      0.03000     -
944      945      996      0.03000     -
944      996      995      0.03000     -
945      946      997      0.03000     -
945      997      996      0.03000     -
946      947      998      0.03000     -
946      998      997      0.03000     -
947      948      999      0.03000     -
947      999      998      0.03000     -
948      949      1000     0.03000     -
948      1000     999      0.03000     -
949      950      1001     0.03000     -
949      1001     1000     0.03000     -
950      951      1002     0.03000     -
950      1002     1001     0.03000     -
951      952      1003     0.03000     -
951      1003     1002     0.03000     -
952      953      1004     0.03000     -
952      1004     1003     0.03000     -
953      954      1005     0.03000     -
953      1005     1004     0.03000     -
954      955      1006     0.03000     -
954      1006     1005     0.03000     -
955      956      1007     0.03000     -
955      1007     1006     0.03000     -
956      957      1008     0.03000     -
956      1008     1007     0.03000     -
957      958      1009     0.03000     -
957      1009     1008     0.03000     -
958      959      1010     0.03000     -
958      1010     1009     0.03000     -
959      960      1011     0.03000     -
959      1011     1010     0.03000     -
960      961      1012     0.03000     -
960      1012     1011     0.03000     -
961      962      1013     0.03000     -
961      1013     1012     0.03000     -
962      963      1014     0.03000     -
962      1014     1013     0.03000     -
963      964      1015     0.03000     -
963      1015     1014     0.03000     -
964      965      1016     0.03000     -
964      1016     1015     0.03000     -
965      966      1017     0.03000     -
965      1017     1016     0.03000     -
966      967      1018     0.03000     -
966      1018     1017     0.03000     -
967      968      1019     0.03000     -
967      1019     1018     0.03000     -
969      970      1021     0.03000     -
969      1021     1020     0.03000     -
970      971      1022     0.03000     -
970      1022     1021     0.03000     -
971      972      1023     0.03000     -
971      1023     1022     0.03000     -
972      973      1024     0.03000     -
972      1024     1023     0.03000     -
973      974      1025     0.03000     -
973      1025     1024     0.03000     -
974      975      1026     0.03000     -
974      1026     1025     0.03000     -
975      976      1027     0.03000     -
975      1027     1026     0.03000     -
976      977      1028     0.03000     -
976      1028     1027     0.03000     -
977      978      1029     0.03000     -
977      1029     1028     0.03000     -
978      979      1030     0.03000     -
978      1030     1029     0.03000     -
979      980      1031     0.03000     -
979      1031     1030     0.03000     -
980      981      1032     0.03000     -
980      1032     1031     0.03000     -
981      982      1033     0.03000     -
981      1033     1032     0.03000     -
982      983      1034     0.03000     -
982      1034     1033     0.03000     -
983      984      1035     0.03000     -
983      1035     1034     0.03000     -
984      985      1036     0.03000     -
984      1036     1035     0.03000     -
985      986      1037     0.03000     -
985      1037     1036     0.03000     -
986      987      1038     0.03000     -
986      1038     1037     0.03000     -
987      988      1039     0.03000     -
987      1039     1038     0.03000     -
988      989      1040     0.03000     -
988      1040     1039     0.03000     -
989      990      1041     0.03000     -
989      1041     1040     0.03000     -
990      991      1042     0.03000     -
990      1042     1041     0.03000     -
991      992      1043     0.03000     -
991      1043     1042     0.03000     -
992      993      1044     0.03000     -
992      1044     1043     0.03000     -
993      994      1045     0.03000     -
993      1045     1044     0.03000     -
994      995      1046     0.03000     -
994      1046     1045     0.03000     -
995      996      1047     0.03000     -
995      1047     1046     0.03000     -
996      997      1048     0.03000     -
996      1048     1047     0.03000     -
997      998      1049     0.03000     -
997      1049     1048     0.03000     -
998      999      1050     0.03000     -
998      1050     1049     0.03000     -
999      1000     1051     0.03000     -
999      1051     1050     0.03000     -
1000     1001     1052     0.03000     -
1000     1052     1051     0.03000     -
1001     1002     1053     0.03000     -
1001     1053     1052     0.03000     -
1002     1003     1054     0.03000     -
1002     1054     1053     0.03000     -
1003     1004     1055     0.03000     -
1003     1055     1054     0.03000     -
1004     1005     1056     0.03000     -
1004     1056     1055     0.03000     -
1005     1006     1057     0.03000     -
1005     1057     1056     0.03000     -
1006     1007     1058     0.03000     -
1006     1058     1057     0.03000     -
1007     1008     1059     0.03000     -
1007     1059     1058     0.03000     -
1008     1009     1060     0.03000     -
1008     1060     1059     0.03000     -
1009     1010     1061     0.03000     -
1009     1061     1060     0.03000     -
1010     1011     1062     0.03000     -
1010     1062     1061     0.03000     -
1011     1012     1063     0.03000     -
1011     1063     1062     0.03000     -
1012     1013     1064     0.03000     -
1012     1064     1063     0.03000     -
1013     1014     1065     0.03000     -
1013     1065     1064     0.03000     -
1014     1015     1066     0.03000     -
1014     1066     1065     0.03000     -
1015     1016     1067     0.03000     -
1015     1067     1066     0.03000     -
1016     1017     1068     0.03000     -
1016     1068     1067     0.03000     -
1017     1018     1069     0.03000     -
1017     1069     1068     0.03000     -
1018     1019     1070     0.03000     -
1018     1070     1069     0.03000     -
1020     1021     1072     0.03000     -
1020     1072     1071     0.03000     -
1021     1022     1073     0.03000     -
1021     1073     1072     0.03000     -
1022     1023     1074     0.03000     -
1022     1074     1073     0.03000     -
1023     1024     1075     0.03000     -
1023     1075     1074     0.03000     -
1024     1025     1076     0.03000     -
1024     1076     1075     0.03000     -
1025     1026     1077     0.03000     -
1025     1077     1076     0.03000     -
1026     1027     1078     0.03000     -
1026     1078     1077     0.03000     -
1027     1028     1079     0.03000     -
1027     1079     1078     0.03000     -
1028     1029     1080     0.03000     -
1028     1080     1079     0.03000     -
1029     1030     1081     0.03000     -
1029     1081     1080     0.03000     -
1030     1031     1082     0.03000     -
1030     1082     1081     0.03000     -
1031     1032     1083     0.03000     -
1031     1083     1082     0.03000     -
1032     1033     1084     0.03000     -
1032     1084     1083     0.03000     -
1033     1034     1085     0.03000     -
1033     1085     1084     0.03000     -
1034     1035     1086     0.03000     -
1034     1086     1085     0.03000     -
1035     1036     1087     0.03000     -
1035     1087     1086     0.03000     -
1036     1037     1088     0.03000     -
1036     1088     1087     0.03000     -
1037     1038     1089     0.03000     -
1037     1089     1088     0.03000     -
1038     1039     1090     0.03000     -
1038     1090     1089     0.03000     -
1039     1040     1091     0.03000     -
1039     1091     1090     0.03000     -
1040     1041     1092     0.03000     -
1040     1092     1091     0.03000     -
1041     1042     1093     0.03000     -
1041     1093     1092     0.03000     -
1042     1043     1094     0.03000     -
1042     1094     1093     0.03000     -
1043     1044     1095     0.03000     -
1043     1095     1094     0.03000     -
1044     1045     1096     0.03000     -
1044     1096     1095     0.03000     -
1045     1046     1097     0.03000     -
1045     1097     1096     0.03000     -
1046     1047     1098     0.03000     -
1046     1098     1097     0.03000     -
1047     1048     1099     0.03000     -
1047     1099     1098     0.03000     -
1048     1049     1100     0.03000     -
1048     1100     1099     0.03000     -
1049     1050     1101     0.03000     -
1049     1101     1100     0.03000     -
1050     1051     1102     0.03000     -
1050     1102     1101     0.03000     -
1051     1052     1103     0.03000     -
1051     1103     1102     0.03000     -
1052     1053     1104     0.03000     -
1052     1104     1103     0.03000     -
1053     1054     1105     0.03000     -
1053     1105     1104     0.03000     -
1054     1055     1106     0.03000     -
1054     1106     1105     0.03000     -
1055     1056     1107     0.03000     -
1055     1107     1106     0.03000     -
1056     1057     1108     0.03000     -
1056     1108     1107     0.03000     -
1057     1058     1109     0.03000     -
1057     1109     1108     0.03000     -
1058     1059     1110     0.03000     -
1058     1110     1109     0.03000     -
1059     1060     1111     0.03000     -
1059     1111     1110     0.03000     -
1060     1061     1112     0.03000     -
1060     1112     1111     0.03000     -
1061     1062     1113     0.03000     -
1061     1113     1112     0.03000     -
1062     1063     1114     0.03000     -
1062     1114     1113     0.03000     -
1063     1064     1115     0.03000     -
1063     1115     1114     0.03000     -
1064     1065     1116     0.03000     -
1064     1116     1115     0.03000     -
1065     1066     1117     0.03000     -
1065     1117     1116     0.03000     -
1066     1067     1118     0.03000     -
1066     1118     1117     0.03000     -
1067     1068     1119     0.03000     -
1067     1119     1118     0.03000     -
1068     1069     1120     0.03000     -
1068     1120     1119     0.03000     -
1069     1070     1121     0.03000     -
1069     1121     1120     0.03000     -
1071     1072     1123     0.03000     -
1071     1123     1122     0.03000     -
1072     1073     1124     0.03000     -
1072     1124     1123     0.03000     -
1073     1074     1125     0.03000     -
1073     1125     1124     0.03000     -
1074     1075     1126     0.03000     -
1074     1126     1125     0.03000     -
1075     1076     1127     0.03000     -
1075     1127     1126     0.03000     -
1076     1077     1128     0.03000     -
1076     1128     1127     0.03000     -
1077     1078     1129     0.03000     -
1077     1129     1128     0.03000     -
1078     1079     1130     0.03000     -
1078     1130     1129     0.03000     -
1079     1080     1131     0.03000     -
1079     1131     1130     0.03000     -
1080     1081     1132     0.03000     -
1080     1132     1131     0.03000     -
1081     1082     1133     0.03000     -
1081     1133     1132     0.03000     -
1082     1083     1134     0.03000     -
1082     1134     1133     0.03000     -
1083     1084     1135     0.03000     -
1083     1135     1134     0.03000     -
1084     1085     1136     0.03000     -
1084     1136     1135     0.03000     -
1085     1086     1137     0.03000     -
1085     1137     1136     0.03000     -
1086     1087     1138     0.03000     -
1086     1138     1137     0.03000     -
1087     1088     1139     0.03000     -
1087     1139     1138     0.03000     -
1088     1089     1140     0.03000     -
1088     1140     1139     0.03000     -
1089     1090     1141     0.03000     -
1089     1141     1140     0.03000     -
1090     1091     1142     0.03000     -
1090     1142     1141     0.03000     -
1091     1092     1143     0.03000     -
1091     1143     1142     0.03000     -
1092     1093     1144     0.03000     -
1092     1144     1143     0.03000     -
1093     1094     1145     0.03000     -
1093     1145     1144     0.03000     -
1094     1095     1146     0.03000     -
1094     1146     1145     0.03000     -
1095     1096     1147     0.03000     -
1095     1147     1146     0.03000     -
1096     1097     1148     0.03000     -
1096     1148     1147     0.03000     -
1097     1098     1149     0.03000     -
1097     1149     1148     0.03000     -
1098     1099     1150     0.03000     -
1098     1150     1149     0.03000     -
1099     1100     1151     0.03000     -
1099     1151     1150     0.03000     -
1100     1101     1152     0.03000     -
1100     1152     1151     0.03000     -
1101     1102     1153     0.03000     -
1101     1153     1152     0.03000     -
1102     1103     1154     0.03000     -
1102     1154     1153     0.03000     -
1103     1104     1155     0.03000     -
1103     1155     1154     0.03000     -
1104     1105     1156     0.03000     -
1104     1156     1155     0.03000     -
1105     1106     1157     0.03000     -
1105     1157     1156     0.03000     -
1106     1107     1158     0.03000     -
1106     1158     1157     0.03000     -
1107     1108     1159     0.03000     -
1107     1159     1158     0.03000     -
1108     1109     1160     0.03000     -
1108     1160     1159     0.03000     -
1109     1110     1161     0.03000     -
1109     1161     1160     0.03000     -
1110     1111     1162     0.03000     -
1110     1162     1161     0.03000     -
1111     1112     1163     0.03000     -
1111     1163     1162     0.03000     -
1112     1113     1164     0.03000     -
1112     1164     1163     0.03000     -
1113     1114     1165     0.03000     -
1113     1165     1164     0.03000     -
1114     1115     1166     0.03000     -
1114     1166     1165     0.03000     -
1115     1116     1167     0.03000     -
1115     1167     1166     0.03000     -
1116     1117     1168     0.03000     -
1116     1168     1167     0.03000     -
1117     1118     1169     0.03000     -
1117     1169     1168     0.03000     -
1118     1119     1170     0.03000     -
1118     1170     1169     0.03000     -
1119     1120     1171     0.03000     -
1119     1171     1170     0.03000     -
1120     1121     1172     0.03000     -
1120     1172     1171     0.03000     -
1122     1123     1174     0.03000     -
1122     1174     1173     0.03000     -
1123     1124     1175     0.03000     -
1123     1175     1174     0.03000     -
1124     1125     1176     0.03000     -
1124     1176     1175     0.03000     -
1125     1126     1177     0.03000     -
1125     1177     1176     0.03000     -
1126     1127     1178     0.03000     -
1126     1178     1177     0.03000     -
1127     1128     1179     0.03000     -
1127     1179     1178     0.03000     -
1128     1129     1180     0.03000     -
1128     1180     1179     0.03000     -
1129     1130     1181     0.03000     -
1129     1181     1180     0.03000     -
1130     1131     1182     0.03000     -
1130     1182     1181     0.03000     -
1131     1132     1183     0.03000     -
1131     1183     1182     0.03000     -
1132     1133     1184     0.03000     -
1132     1184     1183     0.03000     -
1133     1134     1185     0.03000     -
1133     1185     1184     0.03000     -
1134     1135     1186     0.03000     -
1134     1186     1185     0.03000     -
1135     1136     1187     0.03000     -
1135     1187     1186     0.03000     -
1136     1137     1188     0.03000     -
1136     1188     1187     0.03000     -
1137     1138     1189     0.03000     -
1137     1189     1188     0.03000     -
1138     1139     1190     0.03000     -
1138     1190     1189     0.03000     -
1139     1140     1191     0.03000     -
1139     1191     1190     0.03000     -
1140     1141     1192     0.03000     -
1140     1192     1191     0.03000     -
1141     1142     1193     0.03000     -
1141     1193     1192     0.03000     -
1142     1143     1194     0.03000     -
1142     1194     1193     0.03000     -
1143     1144     1195     0.03000     -
1143     1195     1194     0.03000     -
1144     1145     1196     0.03000     -
1144     1196     1195     0.03000     -
1145     1146     1197     0.03000     -
1145     1197     1196     0.03000     -
1146     1147     1198     0.03000     -
1146     1198     1197     0.03000     -
1147     1148     1199     0.03000     -
1147     1199     1198     0.03000     -
1148     1149     1200     0.03000     -
1148     1200     1199     0.03000     -
1149     1150     1201     0.03000     -
1149     1201     1200     0.03000     -
1150     1151     1202     0.03000     -
1150     1202     1201     0.03000     -
1151     1152     1203     0.03000     -
1151     1203     1202     0.03000     -
1152     1153     1204     0.03000     -
1152     1204     1203     0.03000     -
1153     1154     1205     0.03000     -
1153     1205     1204     0.03000     -
1154     1155     1206     0.03000     -
1154     1206     1205     0.03000     -
1155     1156     1207     0.03000     -
1155     1207     1206     0.03000     -
1156     1157     1208     0.03000     -
1156     1208     1207     0.03000     -
1157     1158     1209     0.03000     -
1157     1209     1208     0.03000     -
1158     1159     1210     0.03000     -
1158     1210     1209     0.03000     -
1159     1160     1211     0.03000     -
1159     1211     1210     0.03000     -
1160     1161     1212     0.03000     -
1160     1212     1211     0.03000     -
1161     1162     1213     0.03000     -
1161     1213     1212     0.03000     -
1162     1163     1214     0.03000     -
1162     1214     1213     0.03000     -
1163     1164     1215     0.03000     -
1163     1215     1214     0.03000     -
1164     1165     1216     0.03000     -
1164     1216     1215     0.03000     -
1165     1166     1217     0.03000     -
1165     1217     1216     0.03000     -
1166     1167     1218     0.03000     -
1166     1218     1217     0.03000     -
1167     1168     1219     0.03000     -
1167     1219     1218     0.03000     -
1168     1169     1220     0.03000     -
1168     1220     1219     0.03000     -
1169     1170     1221     0.03000     -
1169     1221     1220     0.03000     -
1170     1171     1222     0.03000     -
1170     1222     1221     0.03000     -
1171     1172     1223     0.03000     -
1171     1223     1222     0.03000     -
1173     1174     1225     0.03000     -
1173     1225     1224     0.03000     -
1174     1175     1226     0.03000     -
1174     1226     1225     0.03000     -
1175     1176     1227     0.03000     -
1175     1227     1226     0.03000     -
1176     1177     1228     0.03000     -
1176     1228     1227     0.03000     -
1177     1178     1229     0.03000     -
1177     1229     1228     0.03000     -
1178     1179     1230     0.03000     -
1178     1230     1229     0.03000     -
1179     1180     1231     0.03000     -
1179     1231     1230     0.03000     -
1180     1181     1232     0.03000     -
1180     1232     1231     0.03000     -
1181     1182     1233     0.03000     -
1181     1233     1232     0.03000     -
1182     1183     1234     0.03000     -
1182     1234     1233     0.03000     -
1183     1184     1235     0.03000     -
1183     1235     1234     0.03000     -
1184     1185     1236     0.03000     -
1184     1236     1235     0.03000     -
1185     1186     1237     0.03000     -
1185     1237     1236     0.03000     -
1186     1187     1238     0.03000     -
1186     1238     1237     0.03000     -
1187     1188     1239     0.03000     -
1187     1239     1238     0.03000     -
1188     1189     1240     0.03000     -
1188     1240     1239     0.03000     -
1189     1190     1241     0.03000     -
1189     1241     1240     0.03000     -
1190     1191     1242     0.03000     -
1190     1242     1241     0.03000     -
1191     1192     1243     0.03000     -
1191     1243     1242     0.03000     -
1192     1193     1244     0.03000     -
1192     1244     1243     0.03000     -
1193     1194     1245     0.03000     -
1193     1245     1244     0.03000     -
1194     1195     1246     0.03000     -
1194     1246     1245     0.03000     -
1195     1196     1247     0.03000     -
1195     1247     1246     0.03000     -
1196     1197     1248     0.03000     -
1196     1248     1247     0.03000     -
1197     1198     1249     0.03000     -
1197     1249     1248     0.03000     -
1198     1199     1250     0.03000     -
1198     1250     1249     0.03000     -
1199     1200     1251     0.03000     -
1199     1251     1250     0.03000     -
1200     1201     1252     0.03000     -
1200     1252     1251     0.03000     -
1201     1202     1253     0.03000     -
1201     1253     1252     0.03000     -
1202     1203     1254     0.03000     -
1202     1254     1253     0.03000     -
1203     1204     1255     0.03000     -
1203     1255     1254     0.03000     -
1204     1205     1256     0.03000     -
1204     1256     1255     0.03000     -
1205     1206     1257     0.03000     -
1205     1257     1256     0.03000     -
1206     1207     1258     0.03000     -
1206     1258     1257     0.03000     -
1207     1208     1259     0.03000     -
1207     1259     1258     0.03000     -
1208     1209     1260     0.03000     -
1208     1260     1259     0.03000     -
1209     1210     1261     0.03000     -
1209     1261     1260     0.03000     -
1210     1211     1262     0.03000     -
1210     1262     1261     0.03000     -
1211     1212     1263     0.03000     -
1211     1263     1262     0.03000     -
1212     1213     1264     0.03000     -
1212     1264     1263     0.03000     -
1213     1214     1265     0.03000     -
1213     1265     1264     0.03000     -
1214     1215     1266     0.03000     -
1214     1266     1265     0.03000     -
1215     1216     1267     0.03000     -
1215     1267     1266     0.03000     -
1216     1217     1268     0.03000     -
1216     1268     1267     0.03000     -
1217     1218     1269     0.03000     -
1217     1269     1268     0.03000     -
1218     1219     1270     0.03000     -
1218     1270     1269     0.03000     -
1219     1220     1271     0.03000     -
1219     1271     1270     0.03000     -
1220     1221     1272     0.03000     -
1220     1272     1271     0.03000     -
1221     1222     1273     0.03000     -
1221     1273     1272     0.03000     -
1222     1223     1274     0.03000     -
1222     1274     1273     0.03000     -
1224     1225     1276     0.03000     -
1224     1276     1275     0.03000     -
1225     1226     1277     0.03000     -
1225     1277     1276     0.03000     -
1226     1227     1278     0.03000     -
1226     1278     1277     0.03000     -
1227     1228     1279     0.03000     -
1227     1279     1278     0.03000     -
1228     1229     1280     0.03000     -
1228     1280     1279     0.03000     -
1229     1230     1281     0.03000     -
1229     1281     1280     0.03000     -
1230     1231     1282     0.03000     -
1230     1282     1281     0.03000     -
1231     1232     1283     0.03000     -
1231     1283     1282     0.03000     -
1232     1233     1284     0.03000     -
1232     1284     1283     0.03000     -
1233     1234     1285     0.03000     -
1233     1285     1284     0.03000     -
1234     1235     1286     0.03000     -
1234     1286     1285     0.03000     -
1235     1236     1287     0.03000     -
1235     1287     1286     0.03000     -
1236     1237     1288     0.03000     -
1236     1288     1287     0.03000     -
1237     1238     1289     0.03000     -
1237     1289     1288     0.03000     -
1238     1239     1290     0.03000     -
1238     1290     1289     0.03000     -
1239     1240     1291     0.03000     -
1239     1291     1290     0.03000     -
1240     1241     1292     0.03000     -
1240     1292     1291     0.03000     -
1241     1242     1293     0.03000     -
1241     1293     1292     0.03000     -
1242     1243     1294     0.03000     -
1242     1294     1293     0.03000     -
1243     1244     1295     0.03000     -
1243     1295     1294     0.03000     -
1244     1245     1296     0.03000     -
1244     1296     1295     0.03000     -
1245     1246     1297     0.03000     -
1245     1297     1296     0.03000     -
1246     1247     1298     0.03000     -
1246     1298     1297     0.03000     -
1247     1248     1299     0.03000     -
1247     1299     1298     0.03000     -
1248     1249     1300     0.03000     -
1248     1300     1299     0.03000     -
1249     1250     1301     0.03000     -
1249     1301     1300     0.03000     -
1250     1251     1302     0.03000     -
1250     1302     1301     0.03000     -
1251     1252     1303     0.03000     -
1251     1303     1302     0.03000     -
1252     1253     1304     0.03000     -
1252     1304     1303     0.03000     -
1253     1254     1305     0.03000     -
1253     1305     1304     0.03000     -
1254     1255     1306     0.03000     -
1254     1306     1305     0.03000     -
1255     1256     1307     0.03000     -
1255     1307     1306     0.03000     -
1256     1257     1308     0.03000     -
1256     1308     1307     0.03000     -
1257     1258     1309     0.03000     -
1257     1309     1308     0.03000     -
1258     1259     1310     0.03000     -
1258     1310     1309     0.03000     -
1259     1260     1311     0.03000     -
1259     1311     1310     0.03000     -
1260     1261     1312     0.03000     -
1260     1312     1311     0.03000     -
1261     1262     1313     0.03000     -
1261     1313     1312     0.03000     -
1262     1263     1314     0.03000     -
1262     1314     1313     0.03000     -
1263     1264     1315     0.03000     -
1263     1315     1314     0.03000     -
1264     1265     1316     0.03000     -
1264     1316     1315     0.03000     -
1265     1266     1317     0.03000     -
1265     1317     1316     0.03000     -
1266     1267     1318     0.03000     -
1266     1318     1317     0.03000     -
1267     1268     1319     0.03000     -
1267     1319     1318     0.03000     -
1268     1269     1320     0.03000     -
1268     1320     1319     0.03000     -
1269     1270     1321     0.03000     -
1269     1321     1320     0.03000     -
1270     1271     1322     0.03000     -
1270     1322     1321     0.03000     -
1271     1272     1323     0.03000     -
1271     1323     1322     0.03000     -
1272     1273     1324     0.03000     -
1272     1324     1323     0.03000     -
1273     1274     1325     0.03000     -
1273     1325     1324     0.03000     -
1275     1276     1327     0.03000     -
1275     1327     1326     0.03000     -
1276     1277     1328     0.03000     -
1276     1328     1327     0.03000     -
1277     1278     1329     0.03000     -
1277     1329     1328     0.03000     -
1278     1279     1330     0.03000     -
1278     1330     1329     0.03000     -
1279     1280     1331     0.03000     -
1279     1331     1330     0.03000     -
1280     1281     1332     0.03000     -
1280     1332     1331     0.03000     -
1281     1282     1333     0.03000     -
1281     1333     1332     0.03000     -
1282     1283     1334     0.03000     -
1282     1334     1333     0.03000     -
1283     1284     1335     0.03000     -
1283     1335     1334     0.03000     -
1284     1285     1336     0.03000     -
1284     1336     1335     0.03000     -
1285     1286     1337     0.03000     -
1285     1337     1336     0.03000     -
1286     1287     1338     0.03000     -
1286     1338     1337     0.03000     -
1287     1288     1339     0.03000     -
1287     1339     1338     0.03000     -
1288     1289     1340     0.03000     -
1288     1340     1339     0.03000     -
1289     1290     1341     0.03000     -
1289     1341     1340     0.03000     -
1290     1291     1342     0.03000     -
1290     1342     1341     0.03000     -
1291     1292     1343     0.03000     -
1291     1343     1342     0.03000     -
1292     1293     1344     0.03000     -
1292     1344     1343     0.03000     -
1293     1294     1345     0.03000     -
1293     1345     1344     0.03000     -
1294     1295     1346     0.03000     -
1294     1346     1345     0.03000     -
1295     1296     1347     0.03000     -
1295     1347     1346     0.03000     -
1296     1297     1348     0.03000     -
1296     1348     1347     0.03000     -
1297     1298     1349     0.03000     -
1297     1349     1348     0.03000     -
1298     1299     1350     0.03000     -
1298     1350     1349     0.03000     -
1299     1300     1351     0.03000     -
1299     1351     1350     0.03000     -
1300     1301     1352     0.03000     -
1300     1352     1351     0.03000     -
1301     1302     1353     0.03000     -
1301     1353     1352     0.03000     -
1302     1303     1354     0.03000     -
1302     1354     1353     0.03000     -
1303     1304     1355     0.03000     -
1303     1355     1354     0.03000     -
1304     1305     1356     0.03000     -
1304     1356     1355     0.03000     -
1305     1306     1357     0.03000     -
1305     1357     1356     0.03000     -
1306     1307     1358     0.03000     -
1306     1358     1357     0.03000     -
1307     1308     1359     0.03000     -
1307     1359     1358     0.03000     -
1308     1309     1360     0.03000     -
1308     1360     1359     0.03000     -
1309     1310     1361     0.03000     -
1309     1361     1360     0.03000     -
1310     1311     1362     0.03000     -
1310     1362     1361     0.03000     -
1311     1312     1363     0.03000     -
1311     1363     1362     0.03000     -
1312     1313     1364     0.03000     -
1312     1364     1363     0.03000     -
1313     1314     1365     0.03000     -
1313     1365     1364     0.03000     -
1314     1315     1366     0.03000     -
1314     1366     1365     0.03000     -
1315     1316     1367     0.03000     -
1315     1367     1366     0.03000     -
1316     1317     1368     0.03000     -
1316     1368     1367     0.03000     -
1317     1318     1369     0.03000     -
1317     1369     1368     0.03000     -
1318     1319     1370     0.03000     -
1318     1370     1369     0.03000     -
1319     1320     1371     0.03000     -
1319     1371     1370     0.03000     -
1320     1321     1372     0.03000     -
1320     1372     1371     0.03000     -
1321     1322     1373     0.03000     -
1321     1373     1372     0.03000     -
1322     1323     1374     0.03000     -
1322     1374     1373     0.03000     -
1323     1324     1375     0.03000     -
1323     1375     1374     0.03000     -
1324     1325     1376     0.03000     -
1324     1376     1375     0.03000     -
1326     1327     1378     0.03000     -
1326     1378     1377     0.03000     -
1327     1328     1379     0.03000     -
1327     1379     1378     0.03000     -
1328     1329     1380     0.03000     -
1328     1380     1379     0.03000     -
1329     1330     1381     0.03000     -
1329     1381     1380     0.03000     -
1330     1331     1382     0.03000     -
1330     1382     1381     0.03000     -
1331     1332     1383     0.03000     -
1331     1383     1382     0.03000     -
1332     1333     1384     0.03000     -
1332     1384     1383     0.03000     -
1333     1334     1385     0.03000     -
1333     1385     1384     0.03000     -
1334     1335     1386     0.03000     -
1334     1386     1385     0.03000     -
1335     1336     1387     0.03000     -
1335     1387     1386     0.03000     -
1336     1337     1388     0.03000     -
1336     1388     1387     0.03000     -
1337     1338     1389     0.03000     -
1337     1389     1388     0.03000     -
1338     1339     1390     0.03000     -
1338     1390     1389     0.03000     -
1339     1340     1391     0.03000     -
1339     1391     1390     0.03000     -
1340     1341     1392     0.03000     -
1340     1392     1391     0.03000     -
1341     1342     1393     0.03000     -
1341     1393     1392     0.03000     -
1342     1343     1394     0.03000     -
1342     1394     1393     0.03000     -
1343     1344     1395     0.03000     -
1343     1395     1394     0.03000     -
1344     1345     1396     0.03000     -
1344     1396     1395     0.03000     -
1345     1346     1397     0.03000     -
1345     1397     1396     0.03000     -
1346     1347     1398     0.03000     -
1346     1398     1397     0.03000     -
1347     1348     1399     0.03000     -
1347     1399     1398     0.03000     -
1348     1349     1400     0.03000     -
1348     1400     1399     0.03000     -
1349     1350     1401     0.03000     -
1349     1401     1400     0.03000     -
1350     1351     1402     0.03000     -
1350     1402     1401     0.03000     -
1351     1352     1403     0.03000     -
1351     1403     1402     0.03000     -
1352     1353     1404     0.03000     -
1352     1404     1403     0.03000     -
1353     1354     1405     0.03000     -
1353     1405     1404     0.03000     -
1354     1355     1406     0.03000     -
1354     1406     1405     0.03000     -
1355     1356     1407     0.03000     -
1355     1407     1406     0.03000     -
1356     1357     1408     0.03000     -
1356     1408     1407     0.03000     -
1357     1358     1409     0.03000     -
1357     1409     1408     0.03000     -
1358     1359     1410     0.03000     -
1358     1410     1409     0.03000     -
1359     1360     1411     0.03000     -
1359     1411     1410     0.03000     -
1360     1361     1412     0.03000     -
1360     1412     1411     0.03000     -
1361     1362     1413     0.03000     -
1361     1413     1412     0.03000     -
1362     1363     1414     0.03000     -
1362     1414     1413     0.03000     -
1363     1364     1415     0.03000     -
1363     1415     1414     0.03000     -
1364     1365     1416     0.03000     -
1364     1416     1415     0.03000     -
1365     1366     1417     0.03000     -
1365     1417     1416     0.03000     -
1366     1367     1418     0.03000     -
1366     1418     1417     0.03000     -
1367     1368     1419     0.03000     -
1367     1419     1418     0.03000     -
1368     1369     1420     0.03000     -
1368     1420     1419     0.03000     -
1369     1370     1421     0.03000     -
1369     1421     1420     0.03000     -
1370     1371     1422     0.03000     -
1370     1422     1421     0.03000     -
1371     1372     1423     0.03000     -
1371     1423     1422     0.03000     -
1372     1373     1424     0.03000     -
1372     1424     1423     0.03000     -
1373     1374     1425     0.03000     -
1373     1425     1424     0.03000     -
1374     1375     1426     0.03000     -
1374     1426     1425     0.03000     -
1375     1376     1427     0.03000     -
1375     1427     1426     0.03000     -
1377     1378     1429     0.03000     -
1377     1429     1428     0.03000     -
1378     1379     1430     0.03000     -
1378     1430     1429     0.03000     -
1379     1380     1431     0.03000     -
1379     1431     1430     0.03000     -
1380     1381     1432     0.03000     -
1380     1432     1431     0.03000     -
1381     1382     1433     0.03000     -
1381     1433     1432     0.03000     -
1382     1383     1434     0.03000     -
1382     1434     1433     0.03000     -
1383     1384     1435     0.03000     -
1383     1435     1434     0.03000     -
1384     1385     1436     0.03000     -
1384     1436     1435     0.03000     -
1385     1386     1437     0.03000     -
1385     1437     1436     0.03000     -
1386     1387     1438     0.03000     -
1386     1438     1437     0.03000     -
1387     1388     1439     0.03000     -
1387     1439     1438     0.03000     -
1388     1389     1440     0.03000     -
1388     1440     1439     0.03000     -
1389     1390     1441     0.03000     -
1389     1441     1440     0.03000     -
1390     1391     1442     0.03000     -
1390     1442     1441     0.03000     -
1391     1392     1443     0.03000     -
1391     1443     1442     0.03000     -
1392     1393     1444     0.03000     -
1392     1444     1443     0.03000     -
1393     1394     1445     0.03000     -
1393     1445     1444     0.03000     -
1394     1395     1446     0.03000     -
1394     1446     1445     0.03000     -
1395     1396     1447     0.03000     -
1395     1447     1446     0.03000     -
1396     1397     1448     0.03000     -
1396     1448     1447     0.03000     -
1397     1398     1449     0.03000     -
1397     1449     1448     0.03000     -
1398     1399     1450     0.03000     -
1398     1450     1449     0.03000     -
1399     1400     1451     0.03000     -
1399     1451     1450     0.03000     -
1400     1401     1452     0.03000     -
1400     1452     1451     0.03000     -
1401     1402     1453     0.03000     -
1401     1453     1452     0.03000     -
1402     1403     1454     0.03000     -
1402     1454     1453     0.03000     -
1403     1404     1455     0.03000     -
1403     1455     1454     0.03000     -
1404     1405     1456     0.03000     -
1404     1456     1455     0.03000     -
1405     1406     1457     0.03000     -
1405     1457     1456     0.03000     -
1406     1407     1458     0.03000     -
1406     1458     1457     0.03000     -
1407     1408     1459     0.03000     -
1407     1459     1458     0.03000     -
1408     1409     1460     0.03000     -
1408     1460     1459     0.03000     -
1409     1410     1461     0.03000     -
1409     1461     1460     0.03000     -
1410     1411     1462     0.03000     -
1410     1462     1461     0.03000     -
1411     1412     1463     0.03000     -
1411     1463     1462     0.03000     -
1412     1413     1464     0.03000     -
1412     1464     1463     0.03000     -
1413     1414     1465     0.03000     -
1413     1465     1464     0.03000     -
1414     1415     1466     0.03000     -
1414     1466     1465     0.03000     -
1415     1416     1467     0.03000     -
1415     1467     1466     0.03000     -
1416     1417     1468     0.03000     -
1416     1468     1467     0.03000     -
1417     1418     1469     0.03000     -
1417     1469     1468     0.03000     -
1418     1419     1470     0.03000     -
1418     1470     1469     0.03000     -
1419     1420     1471     0.03000     -
1419     1471     1470     0.03000     -
1420     1421     1472     0.03000     -
1420     1472     1471     0.03000     -
1421     1422     1473     0.03000     -
1421     1473     1472     0.03000     -
1422     1423     1474     0.03000     -
1422     1474     1473     0.03000     -
1423     1424     1475     0.03000     -
1423     1475     1474     0.03000     -
1424     1425     1476     0.03000     -
1424     1476     1475     0.03000     -
1425     1426     1477     0.03000     -
1425     1477     1476     0.03000     -
1426     1427     1478     0.03000     -
1426     1478     1477     0.03000     -
1428     1429     1480     0.03000     -
1428     1480     1479     0.03000     -
1429     1430     1481     0.03000     -
1429     1481     1480     0.03000     -
1430     1431     1482     0.03000     -
1430     1482     1481     0.03000     -
1431     1432     1483     0.03000     -
1431     1483     1482     0.03000     -
1432     1433     1484     0.03000     -
1432     1484     1483     0.03000     -
1433     1434     1485     0.03000     -
1433     1485     1484     0.03000     -
1434     1435     1486     0.03000     -
1434     1486     1485     0.03000     -
1435     1436     1487     0.03000     -
1435     1487     1486     0.03000     -
1436     1437     1488     0.03000     -
1436     1488     1487     0.03000     -
1437     1438     1489     0.03000     -
1437     1489     1488     0.03000     -
1438     1439     1490     0.03000     -
1438     1490     1489     0.03000     -
1439     1440     1491     0.03000     -
1439     1491     1490     0.03000     -
1440     1441     1492     0.03000     -
1440     1492     1491     0.03000     -
1441     1442     1493     0.03000     -
1441     1493     1492     0.03000     -
1442     1443     1494     0.03000     -
1442     1494     1493     0.03000     -
1443     1444     1495     0.03000     -
1443     1495     1494     0.03000     -
1444     1445     1496     0.03000     -
1444     1496     1495     0.03000     -
1445     1446     1497     0.03000     -
1445     1497     1496     0.03000     -
1446     1447     1498     0.03000     -
1446     1498     1497     0.03000     -
1447     1448     1499     0.03000     -
1447     1499     1498     0.03000     -
1448     1449     1500     0.03000     -
1448     1500     1499     0.03000     -
1449     1450     1501     0.03000     -
1449     1501     1500     0.03000     -
1450     1451     1502     0.03000     -
1450     1502     1501     0.03000     -
1451     1452     1503     0.03000     -
1451     1503     1502     0.03000     -
1452     1453     1504     0.03000     -
1452     1504     1503     0.03000     -
1453     1454     1505     0.03000     -
1453     1505     1504     0.03000     -
1454     1455     1506     0.03000     -
1454     1506     1505     0.03000     -
1455     1456     1507     0.03000     -
1455     1507     1506     0.03000     -
1456     1457     1508     0.03000     -
1456     1508     1507     0.03000     -
1457     1458     1509     0.03000     -
1457     1509     1508     0.03000     -
1458     1459     1510     0.03000     -
1458     1510     1509     0.03000     -
1459     1460     1511     0.03000     -
1459     1511     1510     0.03000     -
1460     1461     1512     0.03000     -
1460     1512     1511     0.03000     -
1461     1462     1513     0.03000     -
1461     1513     1512     0.03000     -
1462     1463     1514     0.03000     -
1462     1514     1513     0.03000     -
1463     1464     1515     0.03000     -
1463     1515     1514     0.03000     -
1464     1465     1516     0.03000     -
1464     1516     1515     0.03000     -
1465     1466     1517     0.03000     -
1465     1517     1516     0.03000     -
1466     1467     1518     0.03000     -
1466     1518     1517     0.03000     -
1467     1468     1519     0.03000     -
1467     1519     1518     0.03000     -
1468     1469     1520     0.03000     -
1468     1520     1519     0.03000     -
1469     1470     1521     0.03000     -
1469     1521     1520     0.03000     -
1470     1471     1522     0.03000     -
1470     1522     1521     0.03000     -
1471     1472     1523     0.03000     -
1471     1523     1522     0.03000     -
1472     1473     1524     0.03000     -
1472     1524     1523     0.03000     -
1473     1474     1525     0.03000     -
1473     1525     1524     0.03000     -
1474     1475     1526     0.03000     -
1474     1526     1525     0.03000     -
1475     1476     1527     0.03000     -
1475     1527     1526     0.03000     -
1476     1477     1528     0.03000     -
1476     1528     1527     0.03000     -
1477     1478     1529     0.03000     -
1477     1529     1528     0.03000     -
1479     1480     1531     0.03000     -
1479     1531     1530     0.03000     -
1480     1481     1532     0.03000     -
1480     1532     1531     0.03000     -
1481     1482     1533     0.03000     -
1481     1533     1532     0.03000     -
1482     1483     1534     0.03000     -
1482     1534     1533     0.03000     -
1483     1484     1535     0.03000     -
1483     1535     1534     0.03000     -
1484     1485     1536     0.03000     -
1484     1536     1535     0.03000     -
1485     1486     1537     0.03000     -
1485     1537     1536     0.03000     -
1486     1487     1538     0.03000     -
1486     1538     1537     0.03000     -
1487     1488     1539     0.03000     -
1487     1539     1538     0.03000     -
1488     1489     1540     0.03000     -
1488     1540     1539     0.03000     -
1489     1490     1541     0.03000     -
1489     1541     1540     0.03000     -
1490     1491     1542     0.03000     -
1490     1542     1541     0.03000     -
1491     1492     1543     0.03000     -
1491     1543     1542     0.03000     -
1492     1493     1544     0.03000     -
1492     1544     1543     0.03000     -
1493     1494     1545     0.03000     -
1493     1545     1544     0.03000     -
1494     1495     1546     0.03000     -
1494     1546     1545     0.03000     -
1495     1496     1547     0.03000     -
1495     1547     1546     0.03000     -
1496     1497     1548     0.03000     -
1496     1548     1547     0.03000     -
1497     1498     1549     0.03000     -
1497     1549     1548     0.03000     -
1498     1499     1550     0.03000     -
1498     1550     1549     0.03000     -
1499     1500     1551     0.03000     -
1499     1551     1550     0.03000     -
1500     1501     1552     0.03000     -
1500     1552     1551     0.03000     -
1501     1502     1553     0.03000     -
1501     1553     1552     0.03000     -
1502     1503     1554     0.03000     -
1502     1554     1553     0.03000     -
1503     1504     1555     0.03000     -
1503     1555     1554     0.03000     -
1504     1505     1556     0.03000     -
1504     1556     1555     0.03000     -
1505     1506     1557     0.03000     -
1505     1557     1556     0.03000     -
1506     1507     1558     0.03000     -
1506     1558     1557     0.03000     -
1507     1508     1559     0.03000     -
1507     1559     1558     0.03000     -
1508     1509     1560     0.03000     -
1508     1560     1559     0.03000     -
1509     1510     1561     0.03000     -
1509     1561     1560     0.03000     -
1510     1511     1562     0.03000     -
1510     1562     1561     0.03000     -
1511     1512     1563     0.03000     -
1511     1563     1562     0.03000     -
1512     1513     1564     0.03000     -
1512     1564     1563     0.03000     -
1513     1514     1565     0.03000     -
1513     1565     1564     0.03000     -
1514     1515     1566     0.03000     -
1514     1566     1565     0.03000     -
1515     1516     1567     0.03000     -
1515     1567     1566     0.03000     -
1516     1517     1568     0.03000     -
1516     1568     1567     0.03000     -
1517     1518     1569     0.03000     -
1517     1569     1568     0.03000     -
1518     1519     1570     0.03000     -
1518     1570     1569     0.03000     -
1519     1520     1571     0.03000     -
1519     1571     1570     0.03000     -
1520     1521     1572     0.03000     -
1520     1572     1571     0.03000     -
1521     1522     1573     0.03000     -
1521     1573     1572     0.03000     -
1522     1523     1574     0.03000     -
1522     1574     1573     0.03000     -
1523     1524     1575     0.03000     -
1523     1575     1574     0.03000     -
1524     1525     1576     0.03000     -
1524     1576     1575     0.03000     -
1525     1526     1577     0.03000     -
1525     1577     1576     0.03000     -
1526     1527     1578     0.03000     -
1526     1578     1577     0.03000     -
1527     1528     1579     0.03000     -
1527     1579     1578     0.03000     -
1528     1529     1580     0.03000     -
1528     1580     1579     0.03000     -
1530     1531     1582     0.03000     -
1530     1582     1581     0.03000     -
1531     1532     1583     0.03000     -
1531     1583     1582     0.03000     -
1532     1533     1584     0.03000     -
1532     1584     1583     0.03000     -
1533     1534     1585     0.03000     -
1533     1585     1584     0.03000     -
1534     1535     1586     0.03000     -
1534     1586     1585     0.03000     -
1535     1536     1587     0.03000     -
1535     1587     1586     0.03000     -
1536     1537     1588     0.03000     -
1536     1588     1587     0.03000     -
1537     1538     1589     0.03000     -
1537     1589     1588     0.03000     -
1538     1539     1590     0.03000     -
1538     1590     1589     0.03000     -
1539     1540     1591     0.03000     -
1539     1591     1590     0.03000     -
1540     1541     1592     0.03000     -
1540     1592     1591     0.03000     -
1541     1542     1593     0.03000     -
1541     1593     1592     0.03000     -
1542     1543     1594     0.03000     -
1542     1594     1593     0.03000     -
1543     1544     1595     0.03000     -
1543     1595     1594     0.03000     -
1544     1545     1596     0.03000     -
1544     1596     1595     0.03000     -
1545     1546     1597     0.03000     -
1545     1597     1596     0.03000     -
1546     1547     1598     0.03000     -
1546     1598     1597     0.03000     -
1547     1548     1599     0.03000     -
1547     1599     1598     0.03000     -
1548     1549     1600     0.03000     -
1548     1600     1599     0.03000     -
1549     1550     1601     0.03000     -
1549     1601     1600     0.03000     -
1550     1551     1602     0.03000     -
1550     1602     1601     0.03000     -
1551     1552     1603     0.03000     -
1551     1603     1602     0.03000     -
1552     1553     1604     0.03000     -
1552     1604     1603     0.03000     -
1553     1554     1605     0.03000     -
1553     1605     1604     0.03000     -
1554     1555     1606     0.03000     -
1554     1606     1605     0.03000     -
1555     1556     1607     0.03000     -
1555     1607     1606     0.03000     -
1556     1557     1608     0.03000     -
1556     1608     1607     0.03000     -
1557     1558     1609     0.03000     -
1557     1609     1608     0.03000     -
1558     1559     1610     0.03000     -
1558     1610     1609     0.03000     -
1559     1560     1611     0.03000     -
1559     1611     1610     0.03000     -
1560     1561     1612     0.03000     -
1560     1612     1611     0.03000     -
1561     1562     1613     0.03000     -
1561     1613     1612     0.03000     -
1562     1563     1614     0.03000     -
1562     1614     1613     0.03000     -
1563     1564     1615     0.03000     -
1563     1615     1614     0.03000     -
1564     1565     1616     0.03000     -
1564     1616     1615     0.03000     -
1565     1566     1617     0.03000     -
1565     1617     1616     0.03000     -
1566     1567     1618     0.03000     -
1566     1618     1617     0.03000     -
1567     1568     1619     0.03000     -
1567     1619     1618     0.03000     -
1568     1569     1620     0.03000     -
1568     1620     1619     0.03000     -
1569     1570     1621     0.03000     -
1569     1621     1620     0.03000     -
1570     1571     1622     0.03000     -
1570     1622     1621     0.03000     -
1571     1572     1623     0.03000     -
1571     1623     1622     0.03000     -
1572     1573     1624     0.03000     -
1572     1624     1623     0.03000     -
1573     1574     1625     0.03000     -
1573     1625     1624     0.03000     -
1574     1575     1626     0.03000     -
1574     1626     1625     0.03000     -
1575     1576     1627     0.03000     -
1575     1627     1626     0.03000     -
1576     1577     1628     0.03000     -
1576     1628     1627     0.03000     -
1577     1578     1629     0.03000     -
1577     1629     1628     0.03000     -
1578     1579     1630     0.03000     -
1578     1630     1629     0.03000     -
1579     1580     1631     0.03000     -
1579     1631     1630     0.03000     -
1581     1582     1633     0.03000     -
1581     1633     1632     0.03000     -
1582     1583     1634     0.03000     -
1582     1634     1633     0.03000     -
1583     1584     1635     0.03000     -
1583     1635     1634     0.03000     -
1584     1585     1636     0.03000     -
1584     1636     1635     0.03000     -
1585     1586     1637     0.03000     -
1585     1637     1636     0.03000     -
1586     1587     1638     0.03000     -
1586     1638     1637     0.03000     -
1587     1588     1639     0.03000     -
1587     1639     1638     0.03000     -
1588     1589     1640     0.03000     -
1588     1640     1639     0.03000     -
1589     1590     1641     0.03000     -
1589     1641     1640     0.03000     -
1590     1591     1642     0.03000     -
1590     1642     1641     0.03000     -
1591     1592     1643     0.03000     -
1591     1643     1642     0.03000     -
1592     1593     1644     0.03000     -
1592     1644     1643     0.03000     -
1593     1594     1645     0.03000     -
1593     1645     1644     0.03000     -
1594     1595     1646     0.03000     -
1594     1646     1645     0.03000     -
1595     1596     1647     0.03000     -
1595     1647     1646     0.03000     -
1596     1597     1648     0.03000     -
1596     1648     1647     0.03000     -
1597     1598     1649     0.03000     -
1597     1649     1648     0.03000     -
1598     1599     1650     0.03000     -
1598     1650     1649     0.03000     -
1599     1600     1651     0.03000     -
1599     1651     1650     0.03000     -
1600     1601     1652     0.03000     -
1600     1652     1651     0.03000     -
1601     1602     1653     0.03000     -
1601     1653     1652     0.03000     -
1602     1603     1654     0.03000     -
1602     1654     1653     0.03000     -
1603     1604     1655     0.03000     -
1603     1655     1654     0.03000     -
1604     1605     1656     0.03000     -
1604     1656     1655     0.03000     -
1605     1606     1657     0.03000     -
1605     1657     1656     0.03000     -
1606     1607     1658     0.03000     -
1606     1658     1657     0.03000     -
1607     1608     1659     0.03000     -
1607     1659     1658     0.03000     -
1608     1609     1660     0.03000     -
1608     1660     1659     0.03000     -
1609     1610     1661     0.03000     -
1609     1661     1660     0.03000     -
1610     1611     1662     0.03000     -
1610     1662     1661     0.03000     -
1611     1612     1663     0.03000     -
1611     1663     1662     0.03000     -
1612     1613     1664     0.03000     -
1612     1664     1663     0.03000     -
1613     1614     1665     0.03000     -
1613     1665     1664     0.03000     -
1614     1615     1666     0.03000     -
1614     1666     1665     0.03000     -
1615     1616     1667     0.03000     -
1615     1667     1666     0.03000     -
1616     1617     1668     0.03000     -
1616     1668     1667     0.03000     -
1617     1618     1669     0.03000     -
1617     1669     1668     0.03000     -
1618     1619     1670     0.03000     -
1618     1670     1669     0.03000     -
1619     1620     1671     0.03000     -
1619     1671     1670     0.03000     -
1620     1621     1672     0.03000     -
1620     1672     1671     0.03000     -
1621     1622     1673     0.03000     -
1621     1673     1672     0.03000     -
1622     1623     1674     0.03000     -
1622     1674     1673     0.03000     -
1623     1624     1675     0.03000     -
1623     1675     1674     0.03000     -
1624     1625     1676     0.03000     -
1624     1676     1675     0.03000     -
1625     1626     1677     0.03000     -
1625     1677     1676     0.03000     -
1626     1627     1678     0.03000     -
1626     1678     1677     0.03000     -
1627     1628     1679     0.03000     -
1627     1679     1678     0.03000     -
1628     1629     1680     0.03000     -
1628     1680     1679     0.03000     -
1629     1630     1681     0.03000     -
1629     1681     1680     0.03000     -
1630     1631     1682     0.03000     -
1630     1682     1681     0.03000     -
1632     1633     1684     0.03000     -
1632     1684     1683     0.03000     -
1633     1634     1685     0.03000     -
1633     1685     1684     0.03000     -
1634     1635     1686     0.03000     -
1634     1686     1685     0.03000     -
1635     1636     1687     0.03000     -
1635     1687     1686     0.03000     -
1636     1637     1688     0.03000     -
1636     1688     1687     0.03000     -
1637     1638     1689     0.03000     -
1637     1689     1688     0.03000     -
1638     1639     1690     0.03000     -
1638     1690     1689     0.03000     -
1639     1640     1691     0.03000     -
1639     1691     1690     0.03000     -
1640     1641     1692     0.03000     -
1640     1692     1691     0.03000     -
1641     1642     1693     0.03000     -
1641     1693     1692     0.03000     -
1642     1643     1694     0.03000     -
1642     1694     1693     0.03000     -
1643     1644     1695     0.03000     -
1643     1695     1694     0.03000     -
1644     1645     1696     0.03000     -
1644     1696     1695     0.03000     -
1645     1646     1697     0.03000     -
1645     1697     1696     0.03000     -
1646     1647     1698     0.03000     -
1646     1698     1697     0.03000     -
1647     1648     1699     0.03000     -
1647     1699     1698     0.03000     -
1648     1649     1700     0.03000     -
1648     1700     1699     0.03000     -
1649     1650     1701     0.03000     -
1649     1701     1700     0.03000     -
1650     1651     1702     0.03000     -
1650     1702     1701     0.03000     -
1651     1652     1703     0.03000     -
1651     1703     1702     0.03000     -
1652     1653     1704     0.03000     -
1652     1704     1703     0.03000     -
1653     1654     1705     0.03000     -
1653     1705     1704     0.03000     -
1654     1655     1706     0.03000     -
1654     1706     1705     0.03000     -
1655     1656     1707     0.03000     -
1655     1707     1706     0.03000     -
1656     1657     1708     0.03000     -
1656     1708     1707     0.03000     -
1657     1658     1709     0.03000     -
1657     1709     1708     0.03000     -
1658     1659     1710     0.03000     -
1658     1710     1709     0.03000     -
1659     1660     1711     0.03000     -
1659     1711     1710     0.03000     -
1660     1661     1712     0.03000     -
1660     1712     1711     0.03000     -
1661     1662     1713     0.03000     -
1661     1713     1712     0.03000     -
1662     1663     1714     0.03000     -
1662     1714     1713     0.03000     -
1663     1664     1715     0.03000     -
1663     1715     1714     0.03000     -
1664     1665     1716     0.03000     -
1664     1716     1715     0.03000     -
1665     1666     1717     0.03000     -
1665     1717     1716     0.03000     -
1666     1667     1718     0.03000     -
1666     1718     1717     0.03000     -
1667     1668     1719     0.03000     -
1667     1719     1718     0.03000     -
1668     1669     1720     0.03000     -
1668     1720     1719     0.03000     -
1669     1670     1721     0.03000     -
1669     1721     1720     0.03000     -
1670     1671     1722     0.03000     -
1670     1722     1721     0.03000     -
1671     1672     1723     0.03000     -
1671     1723     1722     0.03000     -
1672     1673     1724     0.03000     -
1672     1724     1723     0.03000     -
1673     1674     1725     0.03000     -
1673     1725     1724     0.03000     -
1674     1675     1726     0.03000     -
1674     1726     1725     0.03000     -
1675     1676     1727     0.03000     -
1675     1727     1726     0.03000     -
1676     1677     1728     0.03000     -
1676     1728     1727     0.03000     -
1677     1678     1729     0.03000     -
1677     1729     1728     0.03000     -
1678     1679     1730     0.03000     -
1678     1730     1729     0.03000     -
1679     1680     1731     0.03000     -
1679     1731     1730     0.03000     -
1680     1681     1732     0.03000     -
1680     1732     1731     0.03000     -
1681     1682     1733     0.03000     -
1681     1733     1732     0.03000     -
1683     1684     1735     0.03000     -
1683     1735     1734     0.03000     -
1684     1685     1736     0.03000     -
1684     1736     1735     0.03000     -
1685     1686     1737     0.03000     -
1685     1737     1736     0.03000     -
1686     1687     1738     0.03000     -
1686     1738     1737     0.03000     -
1687     1688     1739     0.03000     -
1687     1739     1738     0.03000     -
1688     1689     1740     0.03000     -
1688     1740     1739     0.03000     -
1689     1690     1741     0.03000     -
1689     1741     1740     0.03000     -
1690     1691     1742     0.03000     -
1690     1742     1741     0.03000     -
1691     1692     1743     0.03000     -
1691     1743     1742     0.03000     -
1692     1693     1744     0.03000     -
1692     1744     1743     0.03000     -
1693     1694     1745     0.03000     -
1693     1745     1744     0.03000     -
1694     1695     1746     0.03000     -
1694     1746     1745     0.03000     -
1695     1696     1747     0.03000     -
1695     1747     1746     0.03000     -
1696     1697     1748     0.03000     -
1696     1748     1747     0.03000     -
1697     1698     1749     0.03000     -
1697     1749     1748     0.03000     -
1698     1699     1750     0.03000     -
1698     1750     1749     0.03000     -
1699     1700     1751     0.03000     -
1699     1751     1750     0.03000     -
1700     1701     1752     0.03000     -
1700     1752     1751     0.03000     -
1701     1702     1753     0.03000     -
1701     1753     1752     0.03000     -
1702     1703     1754     0.03000     -
1702     1754     1753     0.03000     -
1703     1704     1755     0.03000     -
1703     1755     1754     0.03000     -
1704     1705     1756     0.03000     -
1704     1756     1755     0.03000     -
1705     1706     1757     0.03000     -
1705     1757     1756     0.03000     -
1706     1707     1758     0.03000     -
1706     1758     1757     0.03000     -
1707     1708     1759     0.03000     -
1707     1759     1758     0.03000     -
1708     1709     1760     0.03000     -
1708     1760     1759     0.03000     -
1709     1710     1761     0.03000     -
1709     1761     1760     0.03000     -
1710     1711     1762     0.03000     -
1710     1762     1761     0.03000     -
1711     1712     1763     0.03000     -
1711     1763     1762     0.03000     -
1712     1713     1764     0.03000     -
1712     1764     1763     0.03000     -
1713     1714     1765     0.03000     -
1713     1765     1764     0.03000     -
1714     1715     1766     0.03000     -
1714     1766     1765     0.03000     -
1715     1716     1767     0.03000     -
1715     1767     1766     0.03000     -
1716     1717     1768     0.03000     -
1716     1768     1767     0.03000     -
1717     1718     1769     0.03000     -
1717     1769     1768     0.03000     -
1718     1719     1770     0.03000     -
1718     1770     1769     0.03000     -
1719     1720     1771     0.03000     -
1719     1771     1770     0.03000     -
1720     1721     1772     0.03000     -
1720     1772     1771     0.03000     -
1721     1722     1773     0.03000     -
1721     1773     1772     0.03000     -
1722     1723     1774     0.03000     -
1722     1774     1773     0.03000     -
1723     1724     1775     0.03000     -
1723     1775     1774     0.03000     -
1724     1725     1776     0.03000     -
1724     1776     1775     0.03000     -
1725     1726     1777     0.03000     -
1725     1777     1776     0.03000     -
1726     1727     1778     0.03000     -
1726     1778     1777     0.03000     -
1727     1728     1779     0.03000     -
1727     1779     1778     0.03000     -
1728     1729     1780     0.03000     -
1728     1780     1779     0.03000     -
1729     1730     1781     0.03000     -
1729     1781     1780     0.03000     -
1730     1731     1782     0.03000     -
1730     1782     1781     0.03000     -
1731     1732     1783     0.03000     -
1731     1783     1782     0.03000     -
1732     1733     1784     0.03000     -
1732     1784     1783     0.03000     -
1734     1735     1786     0.03000     -
1734     1786     1785     0.03000     -
1735     1736     1787     0.03000     -
1735     1787     1786     0.03000     -
1736     1737     1788     0.03000     -
1736     1788     1787     0.03000     -
1737     1738     1789     0.03000     -
1737     1789     1788     0.03000     -
1738     1739     1790     0.03000     -
1738     1790     1789     0.03000     -
1739     1740     1791     0.03000     -
1739     1791     1790     0.03000     -
1740     1741     1792     0.03000     -
1740     1792     1791     0.03000     -
1741     1742     1793     0.03000     -
1741     1793     1792     0.03000     -
1742     1743     1794     0.03000     -
1742     1794     1793     0.03000     -
1743     1744     1795     0.03000     -
1743     1795     1794     0.03000     -
1744     1745     1796     0.03000     -
1744     1796     1795     0.03000     -
1745     1746     1797     0.03000     -
1745     1797     1796     0.03000     -
1746     1747     1798     0.03000     -
1746     1798     1797     0.03000     -
1747     1748     1799     0.03000     -
1747     1799     1798     0.03000     -
1748     1749     1800     0.03000     -
1748     1800     1799     0.03000     -
1749     1750     1801     0.03000     -
1749     1801     1800     0.03000     -
1750     1751     1802     0.03000     -
1750     1802     1801     0.03000     -
1751     1752     1803     0.03000     -
1751     1803     1802     0.03000     -
1752     1753     1804     0.03000     -
1752     1804     1803     0.03000     -
1753     1754     1805     0.03000     -
1753     1805     1804     0.03000     -
1754     1755     1806     0.03000     -
1754     1806     1805     0.03000     -
1755     1756     1807     0.03000     -
1755     1807     1806     0.03000     -
1756     1757     1808     0.03000     -
1756     1808     1807     0.03000     -
1757     1758     1809     0.03000     -
1757     1809     1808     0.03000     -
1758     1759     1810     0.03000     -
1758     1810     1809     0.03000     -
1759     1760     1811     0.03000     -
1759     1811     1810     0.03000     -
1760     1761     1812     0.03000     -
1760     1812     1811     0.03000     -
1761     1762     1813     0.03000     -
1761     1813     1812     0.03000     -
1762     1763     1814     0.03000     -
1762     1814     1813     0.03000     -
1763     1764     1815     0.03000     -
1763     1815     1814     0.03000     -
1764     1765     1816     0.03000     -
1764     1816     1815     0.03000     -
1765     1766     1817     0.03000     -
1765     1817     1816     0.03000     -
1766     1767     1818     0.03000     -
1766     1818     1817     0.03000     -
1767     1768     1819     0.03000     -
1767     1819     1818     0.03000     -
1768     1769     1820     0.03000     -
1768     1820     1819     0.03000     -
1769     1770     1821     0.03000     -
1769     1821     1820     0.03000     -
1770     1771     1822     0.03000     -
1770     1822     1821     0.03000     -
1771     1772     1823     0.03000     -
1771     1823     1822     0.03000     -
1772     1773     1824     0.03000     -
1772     1824     1823     0.03000     -
1773     1774     1825     0.03000     -
1773     1825     1824     0.03000     -
1774     1775     1826     0.03000     -
1774     1826     1825     0.03000     -
1775     1776     1827     0.03000     -
1775     1827     1826     0.03000     -
1776     1777     1828     0.03000     -
1776     1828     1827     0.03000     -
1777     1778     1829     0.03000     -
1777     1829     1828     0.03000     -
1778     1779     1830     0.03000     -
1778     1830     1829     0.03000     -
1779     1780     1831     0.03000     -
1779     1831     1830     0.03000     -
1780     1781     1832     0.03000     -
1780     1832     1831     0.03000     -
1781     1782     1833     0.03000     -
1781     1833     1832     0.03000     -
1782     1783     1834     0.03000     -
1782     1834     1833     0.03000     -
1783     1784     1835     0.03000     -
1783     1835     1834     0.03000     -
1785     1786     1837     0.03000     -
1785     1837     1836     0.03000     -
1786     1787     1838     0.03000     -
1786     1838     1837     0.03000     -
1787     1788     1839     0.03000     -
1787     1839     1838     0.03000     -
1788     1789     1840     0.03000     -
1788     1840     1839     0.03000     -
1789     1790     1841     0.03000     -
1789     1841     1840     0.03000     -
1790     1791     1842     0.03000     -
1790     1842     1841     0.03000     -
1791     1792     1843     0.03000     -
1791     1843     1842     0.03000     -
1792     1793     1844     0.03000     -
1792     1844     1843     0.03000     -
1793     1794     1845     0.03000     -
1793     1845     1844     0.03000     -
1794     1795     1846     0.03000     -
1794     1846     1845     0.03000     -
1795     1796     1847     0.03000     -
1795     1847     1846     0.03000     -
1796     1797     1848     0.03000     -
1796     1848     1847     0.03000     -
1797     1798     1849     0.03000     -
1797     1849     1848     0.03000     -
1798     1799     1850     0.03000     -
1798     1850     1849     0.03000     -
1799     1800     1851     0.03000     -
1799     1851     1850     0.03000     -
1800     1801     1852     0.03000     -
1800     1852     1851     0.03000     -
1801     1802     1853     0.03000     -
1801     1853     1852     0.03000     -
1802     1803     1854     0.03000     -
1802     1854     1853     0.03000     -
1803     1804     1855     0.03000     -
1803     1855     1854     0.03000     -
1804     1805     1856     0.03000     -
1804     1856     1855     0.03000     -
1805     1806     1857     0.03000     -
1805     1857     1856     0.03000     -
1806     1807     1858     0.03000     -
1806     1858     1857     0.03000     -
1807     1808     1859     0.03000     -
1807     1859     1858     0.03000     -
1808     1809     1860     0.03000     -
1808     1860     1859     0.03000     -
1809     1810     1861     0.03000     -
1809     1861     1860     0.03000     -
1810     1811     1862     0.03000     -
1810     1862     1861     0.03000     -
1811     1812     1863     0.03000     -
1811     1863     1862     0.03000     -
1812     1813     1864     0.03000     -
1812     1864     1863     0.03000     -
1813     1814     1865     0.03000     -
1813     1865     1864     0.03000     -
1814     1815     1866     0.03000     -
1814     1866     1865     0.03000     -
1815     1816     1867     0.03000     -
1815     1867     1866     0.03000     -
1816     1817     1868     0.03000     -
1816     1868     1867     0.03000     -
1817     1818     1869     0.03000     -
1817     1869     1868     0.03000     -
1818     1819     1870     0.03000     -
1818     1870     1869     0.03000     -
1819     1820     1871     0.03000     -
1819     1871     1870     0.03000     -
1820     1821     1872     0.03000     -
1820     1872     1871     0.03000     -
1821     1822     1873     0.03000     -
1821     1873     1872     0.03000     -
1822     1823     1874     0.03000     -
1822     1874     1873     0.03000     -
1823     1824     1875     0.03000     -
1823     1875     1874     0.03000     -
1824     1825     1876     0.03000     -
1824     1876     1875     0.03000     -
1825     1826     1877     0.03000     -
1825     1877     1876     0.03000     -
1826     1827     1878     0.03000     -
1826     1878     1877     0.03000     -
1827     1828     1879     0.03000     -
1827     1879     1878     0.03000     -
1828     1829     1880     0.03000     -
1828     1880     1879     0.03000     -
1829     1830     1881     0.03000     -
1829     1881     1880     0.03000     -
1830     1831     1882     0.03000     -
1830     1882     1881     0.03000     -
1831     1832     1883     0.03000     -
1831     1883     1882     0.03000     -
1832     1833     1884     0.03000     -
1832     1884     1883     0.03000     -
1833     1834     1885     0.03000     -
1833     1885     1884     0.03000     -
1834     1835     1886     0.03000     -
1834     1886     1885     0.03000     -
1836     1837     1888     0.03000     -
1836     1888     1887     0.03000     -
1837     1838     1889     0.03000     -
1837     1889     1888     0.03000     -
1838     1839     1890     0.03000     -
1838     1890     1889     0.03000     -
1839     1840     1891     0.03000     -
1839     1891     1890     0.03000     -
1840     1841     1892     0.03000     -
1840     1892     1891     0.03000     -
1841     1842     1893     0.03000     -
1841     1893     1892     0.03000     -
1842     1843     1894     0.03000     -
1842     1894     1893     0.03000     -
1843     1844     1895     0.03000     -
1843     1895     1894     0.03000     -
1844     1845     1896     0.03000     -
1844     1896     1895     0.03000     -
1845     1846     1897     0.03000     -
1845     1897     1896     0.03000     -
1846     1847     1898     0.03000     -
1846     1898     1897     0.03000     -
1847     1848     1899     0.03000     -
1847     1899     1898     0.03000     -
1848     1849     1900     0.03000     -
1848     1900     1899     0.03000     -
1849     1850     1901     0.03000     -
1849     1901     1900     0.03000     -
1850     1851     1902     0.03000     -
1850     1902     1901     0.03000     -
1851     1852     1903     0.03000     -
1851     1903     1902     0.03000     -
1852     1853     1904     0.03000     -
1852     1904     1903     0.03000     -
1853     1854     1905     0.03000     -
1853     1905     1904     0.03000     -
1854     1855     1906     0.03000     -
1854     1906     1905     0.03000     -
1855     1856     1907     0.03000     -
1855     1907     1906     0.03000     -
1856     1857     1908     0.03000     -
1856     1908     1907     0.03000     -
1857     1858     1909     0.03000     -
1857     1909     1908     0.03000     -
1858     1859     1910     0.03000     -
1858     1910     1909     0.03000     -
1859     1860     1911     0.03000     -
1859     1911     1910     0.03000     -
1860     1861     1912     0.03000     -
1860     1912     1911     0.03000     -
1861     1862     1913     0.03000     -
1861     1913     1912     0.03000     -
1862     1863     1914     0.03000     -
1862     1914     1913     0.03000     -
1863     1864     1915     0.03000     -
1863     1915     1914     0.03000     -
1864     1865     1916     0.03000     -
1864     1916     1915     0.03000     -
1865     1866     1917     0.03000     -
1865     1917     1916     0.03000     -
1866     1867     1918     0.03000     -
1866     1918     1917     0.03000     -
1867     1868     1919     0.03000     -
1867     1919     1918     0.03000     -
1868     1869     1920     0.03000     -
1868     1920     1919     0.03000     -
1869     1870     1921     0.03000     -
1869     1921     1920     0.03000     -
1870     1871     1922     0.03000     -
1870     1922     1921     0.03000     -
1871     1872     1923     0.03000     -
1871     1923     1922     0.03000     -
1872     1873     1924     0.03000     -
1872     1924     1923     0.03000     -
1873     1874     1925     0.03000     -
1873     1925     1924     0.03000     -
1874     1875     1926     0.03000     -
1874     1926     1925     0.03000     -
1875     1876     1927     0.03000     -
1875     1927     1926     0.03000     -
1876     1877     1928     0.03000     -
1876     1928     1927     0.03000     -
1877     1878     1929     0.03000     -
1877     1929     1928     0.03000     -
1878     1879     1930     0.03000     -
1878     1930     1929     0.03000     -
1879     1880     1931     0.03000     -
1879     1931     1930     0.03000     -
1880     1881     1932     0.03000     -
1880     1932     1931     0.03000     -
1881     1882     1933     0.03000     -
1881     1933     1932     0.03000     -
1882     1883     1934     0.03000     -
1882     1934     1933     0.03000     -
1883     1884     1935     0.03000     -
1883     1935     1934     0.03000     -
1884     1885     1936     0.03000     -
1884     1936     1935     0.03000     -
1885     1886     1937     0.03000     -
1885     1937     1936     0.03000     -
1887     1888     1939     0.03000     -
1887     1939     1938     0.03000     -
1888     1889     1940     0.03000     -
1888     1940     1939     0.03000     -
1889     1890     1941     0.03000     -
1889     1941     1940     0.03000     -
1890     1891     1942     0.03000     -
1890     1942     1941     0.03000     -
1891     1892     1943     0.03000     -
1891     1943     1942     0.03000     -
1892     1893     1944     0.03000     -
1892     1944     1943     0.03000     -
1893     1894     1945     0.03000     -
1893     1945     1944     0.03000     -
1894     1895     1946     0.03000     -
1894     1946     1945     0.03000     -
1895     1896     1947     0.03000     -
1895     1947     1946     0.03000     -
1896     1897     1948     0.03000     -
1896     1948     1947     0.03000     -
1897     1898     1949     0.03000     -
1897     1949     1948     0.03000     -
1898     1899     1950     0.03000     -
1898     1950     1949     0.03000     -
1899     1900     1951     0.03000     -
1899     1951     1950     0.03000     -
1900     1901     1952     0.03000     -
1900     1952     1951     0.03000     -
1901     1902     1953     0.03000     -
1901     1953     1952     0.03000     -
1902     1903     1954     0.03000     -
1902     1954     1953     0.03000     -
1903     1904     1955     0.03000     -
1903     1955     1954     0.03000     -
1904     1905     1956     0.03000     -
1904     1956     1955     0.03000     -
1905     1906     1957     0.03000     -
1905     1957     1956     0.03000     -
1906     1907     1958     0.03000     -
1906     1958     1957     0.03000     -
1907     1908     1959     0.03000     -
1907     1959     1958     0.03000     -
1908     1909     1960     0.03000     -
1908     1960     1959     0.03000     -
1909     1910     1961     0.03000     -
1909     1961     1960     0.03000     -
1910     1911     1962     0.03000     -
1910     1962     1961     0.03000     -
1911     1912     1963     0.03000     -
1911     1963     1962     0.03000     -
1912     1913     1964     0.03000     -
1912     1964     1963     0.03000     -
1913     1914     1965     0.03000     -
1913     1965     1964     0.03000     -
1914     1915     1966     0.03000     -
1914     1966     1965     0.03000     -
1915     1916     1967     0.03000     -
1915     1967     1966     0.03000     -
1916     1917     1968     0.03000     -
1916     1968     1967     0.03000     -
1917     1918     1969     0.03000     -
1917     1969     1968     0.03000     -
1918     1919     1970     0.03000     -
1918     1970     1969     0.03000     -
1919     1920     1971     0.03000     -
1919     1971     1970     0.03000     -
1920     1921     1972     0.03000     -
1920     1972     1971     0.03000     -
1921     1922     1973     0.03000     -
1921     1973     1972     0.03000     -
1922     1923     1974     0.03000     -
1922     1974     1973     0.03000     -
1923     1924     1975     0.03000     -
1923     1975     1974     0.03000     -
1924     1925     1976     0.03000     -
1924     1976     1975     0.03000     -
1925     1926     1977     0.03000     -
1925     1977     1976     0.03000     -
1926     1927     1978     0.03000     -
1926     1978     1977     0.03000     -
1927     1928     1979     0.03000     -
1927     1979     1978     0.03000     -
1928     1929     1980     0.03000     -
1928     1980     1979     0.03000     -
1929     1930     1981     0.03000     -
1929     1981     1980     0.03000     -
1930     1931     1982     0.03000     -
1930     1982     1981     0.03000     -
1931     1932     1983     0.03000     -
1931     1983     1982     0.03000     -
1932     1933     1984     0.03000     -
1932     1984     1983     0.03000     -
1933     1934     1985     0.03000     -
1933     1985     1984     0.03000     -
1934     1935     1986     0.03000     -
1934     1986     1985     0.03000     -
1935     1936     1987     0.03000     -
1935     1987     1986     0.03000     -
1936     1937     1988     0.03000     -
1936     1988     1987     0.03000     -
1938     1939     1990     0.03000     -
1938     1990     1989     0.03000     -
1939     1940     1991     0.03000     -
1939     1991     1990     0.03000     -
1940     1941     1992     0.03000     -
1940     1992     1991     0.03000     -
1941     1942     1993     0.03000     -
1941     1993     1992     0.03000     -
1942     1943     1994     0.03000     -
1942     1994     1993     0.03000     -
1943     1944     1995     0.03000     -
1943     1995     1994     0.03000     -
1944     1945     1996     0.03000     -
1944     1996     1995     0.03000     -
1945     1946     1997     0.03000     -
1945     1997     1996     0.03000     -
1946     1947     1998     0.03000     -
1946     1998     1997     0.03000     -
1947     1948     1999     0.03000     -
1947     1999     1998     0.03000     -
1948     1949     2000     0.03000     -
1948     2000     1999     0.03000     -
1949     1950     2001     0.03000     -
1949     2001     2000     0.03000     -
1950     1951     2002     0.03000     -
1950     2002     2001     0.03000     -
1951     1952     2003     0.03000     -
1951     2003     2002     0.03000     -
1952     1953     2004     0.03000     -
1952     2004     2003     0.03000     -
1953     1954     2005     0.03000     -
1953     2005     2004     0.03000     -
1954     1955     2006     0.03000     -
1954     2006     2005     0.03000     -
1955     1956     2007     0.03000     -
1955     2007     2006     0.03000     -
1956     1957     2008     0.03000     -
1956     2008     2007     0.03000     -
1957     1958     2009     0.03000     -
1957     2009     2008     0.03000     -
1958     1959     2010     0.03000     -
1958     2010     2009     0.03000     -
1959     1960     2011     0.03000     -
1959     2011     2010     0.03000     -
1960     1961     2012     0.03000     -
1960     2012     2011     0.03000     -
1961     1962     2013     0.03000     -
1961     2013     2012     0.03000     -
1962     1963     2014     0.03000     -
1962     2014     2013     0.03000     -
1963     1964     2015     0.03000     -
1963     2015     2014     0.03000     -
1964     1965     2016     0.03000     -
1964     2016     2015     0.03000     -
1965     1966     2017     0.03000     -
1965     2017     2016     0.03000     -
1966     1967     2018     0.03000     -
1966     2018     2017     0.03000     -
1967     1968     2019     0.03000     -
1967     2019     2018     0.03000     -
1968     1969     2020     0.03000     -
1968     2020     2019     0.03000     -
1969     1970     2021     0.03000     -
1969     2021     2020     0.03000     -
1970     1971     2022     0.03000     -
1970     2022     2021     0.03000     -
1971     1972     2023     0.03000     -
1971     2023     2022     0.03000     -
1972     1973     2024     0.03000     -
1972     2024     2023     0.03000     -
1973     1974     2025     0.03000     -
1973     2025     2024     0.03000     -
1974     1975     2026     0.03000     -
1974     2026     2025     0.03000     -
1975     1976     2027     0.03000     -
1975     2027     2026     0.03000     -
1976     1977     2028     0.03000     -
1976     2028     2027     0.03000     -
1977     1978     2029     0.03000     -
1977     2029     2028     0.03000     -
1978     1979     2030     0.03000     -
1978     2030     2029     0.03000     -
1979     1980     2031     0.03000     -
1979     2031     2030     0.03000     -
1980     1981     2032     0.03000     -
1980     2032     2031     0.03000     -
1981     1982     2033     0.03000     -
1981     2033     2032     0.03000     -
1982     1983     2034     0.03000     -
1982     2034     2033     0.03000     -
1983     1984     2035     0.03000     -
1983     2035     2034     0.03000     -
1984     1985     2036     0.03000     -
1984     2036     2035     0.03000     -
1985     1986     2037     0.03000     -
1985     2037     2036     0.03000     -
1986     1987     2038     0.03000     -
1986     2038     2037     0.03000     -
1987     1988     2039     0.03000     -
1987     2039     2038     0.03000     -
1989     1990     2041     0.03000     -
1989     2041     2040     0.03000     -
1990     1991     2042     0.03000     -
1990     2042     2041     0.03000     -
1991     1992     2043     0.03000     -
1991     2043     2042     0.03000     -
1992     1993     2044     0.03000     -
1992     2044     2043     0.03000     -
1993     1994     2045     0.03000     -
1993     2045     2044     0.03000     -
1994     1995     2046     0.03000     -
1994     2046     2045     0.03000     -
1995     1996     2047     0.03000     -
1995     2047     2046     0.03000     -
1996     1997     2048     0.03000     -
1996     2048     2047     0.03000     -
1997     1998     2049     0.03000     -
1997     2049     2048     0.03000     -
1998     1999     2050     0.03000     -
1998     2050     2049     0.03000     -
1999     2000     2051     0.03000     -
1999     2051     2050     0.03000     -
2000     2001     2052     0.03000     -
2000     2052     2051     0.03000     -
2001     2002     2053     0.03000     -
2001     2053     2052     0.03000     -
2002     2003     2054     0.03000     -
2002     2054     2053     0.03000     -
2003     2004     2055     0.03000     -
2003     2055     2054     0.03000     -
2004     2005     2056     0.03000     -
2004     2056     2055     0.03000     -
2005     2006     2057     0.03000     -
2005     2057     2056     0.03000     -
2006     2007     2058     0.03000     -
2006     2058     2057     0.03000     -
2007     2008     2059     0.03000     -
2007     2059     2058     0.03000     -
2008     2009     2060     0.03000     -
2008     2060     2059     0.03000     -
2009     2010     2061     0.03000     -
2009     2061     2060     0.03000     -
2010     2011     2062     0.03000     -
2010     2062     2061     0.03000     -
2011     2012     2063     0.03000     -
2011     2063     2062     0.03000     -
2012     2013     2064     0.03000     -
2012     2064     2063     0.03000     -
2013     2014     2065     0.03000     -
2013     2065     2064     0.03000     -
2014     2015     2066     0.03000     -
2014     2066     2065     0.03000     -
2015     2016     2067     0.03000     -
2015     2067     2066     0.03000     -
2016     2017     2068     0.03000     -
2016     2068     2067     0.03000     -
2017     2018     2069     0.03000     -
2017     2069     2068     0.03000     -
2018     2019     2070     0.03000     -
2018     2070     2069     0.03000     -
2019     2020     2071     0.03000     -
2019     2071     2070     0.03000     -
2020     2021     2072     0.03000     -
2020     2072     2071     0.03000     -
2021     2022     2073     0.03000     -
2021     2073     2072     0.03000     -
2022     2023     2074     0.03000     -
2022     2074     2073     0.03000     -
2023     2024     2075     0.03000     -
2023     2075     2074     0.03000     -
2024     2025     2076     0.03000     -
2024     2076     2075     0.03000     -
2025     2026     2077     0.03000     -
2025     2077     2076     0.03000     -
2026     2027     2078     0.03000     -
2026     2078     2077     0.03000     -
2027     2028     2079     0.03000     -
2027     2079     2078     0.03000     -
2028     2029     2080     0.03000     -
2028     2080     2079     0.03000     -
2029     2030     2081     0.03000     -
2029     2081     2080     0.03000     -
2030     2031     2082     0.03000     -
2030     2082     2081     0.03000     -
2031     2032     2083     0.03000     -
2031     2083     2082     0.03000     -
2032     2033     2084     0.03000     -
2032     2084     2083     0.03000     -
2033     2034     2085     0.03000     -
2033     2085     2084     0.03000     -
2034     2035     2086     0.03000     -
2034     2086     2085     0.03000     -
2035     2036     2087     0.03000     -
2035     2087     2086     0.03000     -
2036     2037     2088     0.03000     -
2036     2088     2087     0.03000     -
2037     2038     2089     0.03000     -
2037     2089     2088     0.03000     -
2038     2039     2090     0.03000     -
2038     2090     2089     0.03000     -
2040     2041     2092     0.03000     -
2040     2092     2091     0.03000     -
2041     2042     2093     0.03000     -
2041     2093     2092     0.03000     -
2042     2043     2094     0.03000     -
2042     2094     2093     0.03000     -
2043     2044     2095     0.03000     -
2043     2095     2094     0.03000     -
2044     2045     2096     0.03000     -
2044     2096     2095     0.03000     -
2045     2046     2097     0.03000     -
2045     2097     2096     0.03000     -
2046     2047     2098     0.03000     -
2046     2098     2097     0.03000     -
2047     2048     2099     0.03000     -
2047     2099     2098     0.03000     -
2048     2049     2100     0.03000     -
2048     2100     2099     0.03000     -
2049     2050     2101     0.03000     -
2049     2101     2100     0.03000     -
2050     2051     2102     0.03000     -
2050     2102     2101     0.03000     -
2051     2052     2103     0.03000     -
2051     2103     2102     0.03000     -
2052     2053     2104     0.03000     -
2052     2104     2103     0.03000     -
2053     2054     2105     0.03000     -
2053     2105     2104     0.03000     -
2054     2055     2106     0.03000     -
2054     2106     2105     0.03000     -
2055     2056     2107     0.03000     -
2055     2107     2106     0.03000     -
2056     2057     2108     0.03000     -
2056     2108     2107     0.03000     -
2057     2058     2109     0.03000     -
2057     2109     2108     0.03000     -
2058     2059     2110     0.03000     -
2058     2110     2109     0.03000     -
2059     2060     2111     0.03000     -
2059     2111     2110     0.03000     -
2060     2061     2112     0.03000     -
2060     2112     2111     0.03000     -
2061     2062     2113     0.03000     -
2061     2113     2112     0.03000     -
2062     2063     2114     0.03000     -
2062     2114     2113     0.03000     -
2063     2064     2115     0.03000     -
2063     2115     2114     0.03000     -
2064     2065     2116     0.03000     -
2064     2116     2115     0.03000     -
2065     2066     2117     0.03000     -
2065     2117     2116     0.03000     -
2066     2067     2118     0.03000     -
2066     2118     2117     0.03000     -
2067     2068     2119     0.03000     -
2067     2119     2118     0.03000     -
2068     2069     2120     0.03000     -
2068     2120     2119     0.03000     -
2069     2070     2121     0.03000     -
2069     2121     2120     0.03000     -
2070     2071     2122     0.03000     -
2070     2122     2121     0.03000     -
2071     2072     2123     0.03000     -
2071     2123     2122     0.03000     -
2072     2073     2124     0.03000     -
2072     2124     2123     0.03000     -
2073     2074     2125     0.03000     -
2073     2125     2124     0.03000     -
2074     2075     2126     0.03000     -
2074     2126     2125     0.03000     -
2075     2076     2127     0.03000     -
2075     2127     2126     0.03000     -
2076     2077     2128     0.03000     -
2076     2128     2127     0.03000     -
2077     2078     2129     0.03000     -
2077     2129     2128     0.03000     -
2078     2079     2130     0.03000     -
2078     2130     2129     0.03000     -
2079     2080     2131     0.03000     -
2079     2131     2130     0.03000     -
2080     2081     2132     0.03000     -
2080     2132     2131     0.03000     -
2081     2082     2133     0.03000     -
2081     2133     2132     0.03000     -
2082     2083     2134     0.03000     -
2082     2134     2133     0.03000     -
2083     2084     2135     0.03000     -
2083     2135     2134     0.03000     -
2084     2085     2136     0.03000     -
2084     2136     2135     0.03000     -
2085     2086     2137     0.03000     -
2085     2137     2136     0.03000     -
2086     2087     2138     0.03000     -
2086     2138     2137     0.03000     -
2087     2088     2139     0.03000     -
2087     2139     2138     0.03000     -
2088     2089     2140     0.03000     -
2088     2140     2139     0.03000     -
2089     2090     2141     0.03000     -
2089     2141     2140     0.03000     -
2091     2092     2143     0.03000     -
2091     2143     2142     0.03000     -
2092     2093     2144     0.03000     -
2092     2144     2143     0.03000     -
2093     2094     2145     0.03000     -
2093     2145     2144     0.03000     -
2094     2095     2146     0.03000     -
2094     2146     2145     0.03000     -
2095     2096     2147     0.03000     -
2095     2147     2146     0.03000     -
2096     2097     2148     0.03000     -
2096     2148     2147     0.03000     -
2097     2098     2149     0.03000     -
2097     2149     2148     0.03000     -
2098     2099     2150     0.03000     -
2098     2150     2149     0.03000     -
2099     2100     2151     0.03000     -
2099     2151     2150     0.03000     -
2100     2101     2152     0.03000     -
2100     2152     2151     0.03000     -
2101     2102     2153     0.03000     -
2101     2153     2152     0.03000     -
2102     2103     2154     0.03000     -
2102     2154     2153     0.03000     -
2103     2104     2155     0.03000     -
2103     2155     2154     0.03000     -
2104     2105     2156     0.03000     -
2104     2156     2155     0.03000     -
2105     2106     2157     0.03000     -
2105     2157     2156     0.03000     -
2106     2107     2158     0.03000     -
2106     2158     2157     0.03000     -
2107     2108     2159     0.03000     -
2107     2159     2158     0.03000     -
2108     2109     2160     0.03000     -
2108     2160     2159     0.03000     -
2109     2110     2161     0.03000     -
2109     2161     2160     0.03000     -
2110     2111     2162     0.03000     -
2110     2162     2161     0.03000     -
2111     2112     2163     0.03000     -
2111     2163     2162     0.03000     -
2112     2113     2164     0.03000     -
2112     2164     2163     0.03000     -
2113     2114     2165     0.03000     -
2113     2165     2164     0.03000     -
2114     2115     2166     0.03000     -
2114     2166     2165     0.03000     -
2115     2116     2167     0.03000     -
2115     2167     2166     0.03000     -
2116     2117     2168     0.03000     -
2116     2168     2167     0.03000     -
2117     2118     2169     0.03000     -
2117     2169     2168     0.03000     -
2118     2119     2170     0.03000     -
2118     2170     2169     0.03000     -
2119     2120     2171     0.03000     -
2119     2171     2170     0.03000     -
2120     2121     2172     0.03000     -
2120     2172     2171     0.03000     -
2121     2122     2173     0.03000     -
2121     2173     2172     0.03000     -
2122     2123     2174     0.03000     -
2122     2174     2173     0.03000     -
2123     2124     2175     0.03000     -
2123     2175     2174     0.03000     -
2124     2125     2176     0.03000     -
2124     2176     2175     0.03000     -
2125     2126     2177     0.03000     -
2125     2177     2176     0.03000     -
2126     2127     2178     0.03000     -
2126     2178     2177     0.03000     -
2127     2128     2179     0.03000     -
2127     2179     2178     0.03000     -
2128     2129     2180     0.03000     -
2128     2180     2179     0.03000     -
2129     2130     2181     0.03000     -
2129     2181     2180     0.03000     -
2130     2131     2182     0.03000     -
2130     2182     2181     0.03000     -
2131     2132     2183     0.03000     -
2131     2183     2182     0.03000     -
2132     2133     2184     0.03000     -
2132     2184     2183     0.03000     -
2133     2134     2185     0.03000     -
2133     2185     2184     0.03000     -
2134     2135     2186     0.03000     -
2134     2186     2185     0.03000     -
2135     2136     2187     0.03000     -
2135     2187     2186     0.03000     -
2136     2137     2188     0.03000     -
2136     2188     2187     0.03000     -
2137     2138     2189     0.03000     -
2137     2189     2188     0.03000     -
2138     2139     2190     0.03000     -
2138     2190     2189     0.03000     -
2139     2140     2191     0.03000     -
2139     2191     2190     0.03000     -
2140     2141     2192     0.03000     -
2140     2192     2191     0.03000     -
2142     2143     2194     0.03000     -
2142     2194     2193     0.03000     -
2143     2144     2195     0.03000     -
2143     2195     2194     0.03000     -
2144     2145     2196     0.03000     -
2144     2196     2195     0.03000     -
2145     2146     2197     0.03000     -
2145     2197     2196     0.03000     -
2146     2147     2198     0.03000     -
2146     2198     2197     0.03000     -
2147     2148     2199     0.03000     -
2147     2199     2198     0.03000     -
2148     2149     2200     0.03000     -
2148     2200     2199     0.03000     -
2149     2150     2201     0.03000     -
2149     2201     2200     0.03000     -
2150     2151     2202     0.03000     -
2150     2202     2201     0.03000     -
2151     2152     2203     0.03000     -
2151     2203     2202     0.03000     -
2152     2153     2204     0.03000     -
2152     2204     2203     0.03000     -
2153     2154     2205     0.03000     -
2153     2205     2204     0.03000     -
2154     2155     2206     0.03000     -
2154     2206     2205     0.03000     -
2155     2156     2207     0.03000     -
2155     2207     2206     0.03000     -
2156     2157     2208     0.03000     -
2156     2208     2207     0.03000     -
2157     2158     2209     0.03000     -
2157     2209     2208     0.03000     -
2158     2159     2210     0.03000     -
2158     2210     2209     0.03000     -
2159     2160     2211     0.03000     -
2159     2211     2210     0.03000     -
2160     2161     2212     0.03000     -
2160     2212     2211     0.03000     -
2161     2162     2213     0.03000     -
2161     2213     2212     0.03000     -
2162     2163     2214     0.03000     -
2162     2214     2213     0.03000     -
2163     2164     2215     0.03000     -
2163     2215     2214     0.03000     -
2164     2165     2216     0.03000     -
2164     2216     2215     0.03000     -
2165     2166     2217     0.03000     -
2165     2217     2216     0.03000     -
2166     2167     2218     0.03000     -
2166     2218     2217     0.03000     -
2167     2168     2219     0.03000     -
2167     2219     2218     0.03000     -
2168     2169     2220     0.03000     -
2168     2220     2219     0.03000     -
2169     2170     2221     0.03000     -
2169     2221     2220     0.03000     -
2170     2171     2222     0.03000     -
2170     2222     2221     0.03000     -
2171     2172     2223     0.03000     -
2171     2223     2222     0.03000     -
2172     2173     2224     0.03000     -
2172     2224     2223     0.03000     -
2173     2174     2225     0.03000     -
2173     2225     2224     0.03000     -
2174     2175     2226     0.03000     -
2174     2226     2225     0.03000     -
2175     2176     2227     0.03000     -
2175     2227     2226     0.03000     -
2176     2177     2228     0.03000     -
2176     2228     2227     0.03000     -
2177     2178     2229     0.03000     -
2177     2229     2228     0.03000     -
2178     2179     2230     0.03000     -
2178     2230     2229     0.03000     -
2179     2180     2231     0.03000     -
2179     2231     2230     0.03000     -
2180     2181     2232     0.03000     -
2180     2232     2231     0.03000     -
2181     2182     2233     0.03000     -
2181     2233     2232     0.03000     -
2182     2183     2234     0.03000     -
2182     2234     2233     0.03000     -
2183     2184     2235     0.03000     -
2183     2235     2234     0.03000     -
2184     2185     2236     0.03000     -
2184     2236     2235     0.03000     -
2185     2186     2237     0.03000     -
2185     2237     2236     0.03000     -
2186     2187     2238     0.03000     -
2186     2238     2237     0.03000     -
2187     2188     2239     0.03000     -
2187     2239     2238     0.03000     -
2188     2189     2240     0.03000     -
2188     2240     2239     0.03000     -
2189     2190     2241     0.03000     -
2189     2241     2240     0.03000     -
2190     2191     2242     0.03000     -
2190     2242     2241     0.03000     -
2191     2192     2243     0.03000     -
2191     2243     2242     0.03000     -
2193     2194     2245     0.03000     -
2193     2245     2244     0.03000     -
2194     2195     2246     0.03000     -
2194     2246     2245     0.03000     -
2195     2196     2247     0.03000     -
2195     2247     2246     0.03000     -
2196     2197     2248     0.03000     -
2196     2248     2247     0.03000     -
2197     2198     2249     0.03000     -
2197     2249     2248     0.03000     -
2198     2199     2250     0.03000     -
2198     2250     2249     0.03000     -
2199     2200     2251     0.03000     -
2199     2251     2250     0.03000     -
2200     2201     2252     0.03000     -
2200     2252     2251     0.03000     -
2201     2202     2253     0.03000     -
2201     2253     2252     0.03000     -
2202     2203     2254     0.03000     -
2202     2254     2253     0.03000     -
2203     2204     2255     0.03000     -
2203     2255     2254     0.03000     -
2204     2205     2256     0.03000     -
2204     2256     2255     0.03000     -
2205     2206     2257     0.03000     -
2205     2257     2256     0.03000     -
2206     2207     2258     0.03000     -
2206     2258     2257     0.03000     -
2207     2208     2259     0.03000     -
2207     2259     2258     0.03000     -
2208     2209     2260     0.03000     -
2208     2260     2259     0.03000     -
2209     2210     2261     0.03000     -
2209     2261     2260     0.03000     -
2210     2211     2262     0.03000     -
2210     2262     2261     0.03000     -
2211     2212     2263     0.03000     -
2211     2263     2262     0.03000     -
2212     2213     2264     0.03000     -
2212     2264     2263     0.03000     -
2213     2214     2265     0.03000     -
2213     2265     2264     0.03000     -
2214     2215     2266     0.03000     -
2214     2266     2265     0.03000     -
2215     2216     2267     0.03000     -
2215     2267     2266     0.03000     -
2216     2217     2268     0.03000     -
2216     2268     2267     0.03000     -
2217     2218     2269     0.03000     -
2217     2269     2268     0.03000     -
2218     2219     2270     0.03000     -
2218     2270     2269     0.03000     -
2219     2220     2271     0.03000     -
2219     2271     2270     0.03000     -
2220     2221     2272     0.03000     -
2220     2272     2271     0.03000     -
2221     2222     2273     0.03000     -
2221     2273     2272     0.03000     -
2222     2223     2274     0.03000     -
2222     2274     2273     0.03000     -
2223     2224     2275     0.03000     -
2223     2275     2274     0.03000     -
2224     2225     2276     0.03000     -
2224     2276     2275     0.03000     -
2225     2226     2277     0.03000     -
2225     2277     2276     0.03000     -
2226     2227     2278     0.03000     -
2226     2278     2277     0.03000     -
2227     2228     2279     0.03000     -
2227     2279     2278     0.03000     -
2228     2229     2280     0.03000     -
2228     2280     2279     0.03000     -
2229     2230     2281     0.03000     -
2229     2281     2280     0.03000     -
2230     2231     2282     0.03000     -
2230     2282     2281     0.03000     -
2231     2232     2283     0.03000     -
2231     2283     2282     0.03000     -
2232     2233     2284     0.03000     -
2232     2284     2283     0.03000     -
2233     2234     2285     0.03000     -
2233     2285     2284     0.03000     -
2234     2235     2286     0.03000     -
2234     2286     2285     0.03000     -
2235     2236     2287     0.03000     -
2235     2287     2286     0.03000     -
2236     2237     2288     0.03000     -
2236     2288     2287     0.03000     -
2237     2238     2289     0.03000     -
2237     2289     2288     0.03000     -
2238     2239     2290     0.03000     -
2238     2290     2289     0.03000     -
2239     2240     2291     0.03000     -
2239     2291     2290     0.03000     -
2240     2241     2292     0.03000     -
2240     2292     2291     0.03000     -
2241     2242     2293     0.03000     -
2241     2293     2292     0.03000     -
2242     2243     2294     0.03000     -
2242     2294     2293     0.03000     -
2244     2245     2296     0.03000     -
2244     2296     2295     0.03000     -
2245     2246     2297     0.03000     -
2245     2297     2296     0.03000     -
2246     2247     2298     0.03000     -
2246     2298     2297     0.03000     -
2247     2248     2299     0.03000     -
2247     2299     2298     0.03000     -
2248     2249     2300     0.03000     -
2248     2300     2299     0.03000     -
2249     2250     2301     0.03000     -
2249     2301     2300     0.03000     -
2250     2251     2302     0.03000     -
2250     2302     2301     0.03000     -
2251     2252     2303     0.03000     -
2251     2303     2302     0.03000     -
2252     2253     2304     0.03000     -
2252     2304     2303     0.03000     -
2253     2254     2305     0.03000     -
2253     2305     2304     0.03000     -
2254     2255     2306     0.03000     -
2254     2306     2305     0.03000     -
2255     2256     2307     0.03000     -
2255     2307     2306     0.03000     -
2256     2257     2308     0.03000     -
2256     2308     2307     0.03000     -
2257     2258     2309     0.03000     -
2257     2309     2308     0.03000     -
2258     2259     2310     0.03000     -
2258     2310     2309     0.03000     -
2259     2260     2311     0.03000     -
2259     2311     2310     0.03000     -
2260     2261     2312     0.03000     -
2260     2312     2311     0.03000     -
2261     2262     2313     0.03000     -
2261     2313     2312     0.03000     -
2262     2263     2314     0.03000     -
2262     2314     2313     0.03000     -
2263     2264     2315     0.03000     -
2263     2315     2314     0.03000     -
2264     2265     2316     0.03000     -
2264     2316     2315     0.03000     -
2265     2266     2317     0.03000     -
2265     2317     2316     0.03000     -
2266     2267     2318     0.03000     -
2266     2318     2317     0.03000     -
2267     2268     2319     0.03000     -
2267     2319     2318     0.03000     -
2268     2269     2320     0.03000     -
2268     2320     2319     0.03000     -
2269     2270     2321     0.03000     -
2269     2321     2320     0.03000     -
2270     2271     2322     0.03000     -
2270     2322     2321     0.03000     -
2271     2272     2323     0.03000     -
2271     2323     2322     0.03000     -
2272     2273     2324     0.03000     -
2272     2324     2323     0.03000     -
2273     2274     2325     0.03000     -
2273     2325     2324     0.03000     -
2274     2275     2326     0.03000     -
2274     2326     2325     0.03000     -
2275     2276     2327     0.03000     -
2275     2327     2326     0.03000     -
2276     2277     2328     0.03000     -
2276     2328     2327     0.03000     -
2277     2278     2329     0.03000     -
2277     2329     2328     0.03000     -
2278     2279     2330     0.03000     -
2278     2330     2329     0.03000     -
2279     2280     2331     0.03000     -
2279     2331     2330     0.03000     -
2280     2281     2332     0.03000     -
2280     2332     2331     0.03000     -
2281     2282     2333     0.03000     -
2281     2333     2332     0.03000     -
2282     2283     2334     0.03000     -
2282     2334     2333     0.03000     -
2283     2284     2335     0.03000     -
2283     2335     2334     0.03000     -
2284     2285     2336     0.03000     -
2284     2336     2335     0.03000     -
2285     2286     2337     0.03000     -
2285     2337     2336     0.03000     -
2286     2287     2338     0.03000     -
2286     2338     2337     0.03000     -
2287     2288     2339     0.03000     -
2287     2339     2338     0.03000     -
2288     2289     2340     0.03000     -
2288     2340     2339     0.03000     -
2289     2290     2341     0.03000     -
2289     2341     2340     0.03000     -
2290     2291     2342     0.03000     -
2290     2342     2341     0.03000     -
2291     2292     2343     0.03000     -
2291     2343     2342     0.03000     -
2292     2293     2344     0.03000     -
2292     2344     2343     0.03000     -
2293     2294     2345     0.03000     -
2293     2345     2344     0.03000     -
2295     2296     2347     0.03000     -
2295     2347     2346     0.03000     -
2296     2297     2348     0.03000     -
2296     2348     2347     0.03000     -
2297     2298     2349     0.03000     -
2297     2349     2348     0.03000     -
2298     2299     2350     0.03000     -
2298     2350     2349     0.03000     -
2299     2300     2351     0.03000     -
2299     2351     2350     0.03000     -
2300     2301     2352     0.03000     -
2300     2352     2351     0.03000     -
2301     2302     2353     0.03000     -
2301     2353     2352     0.03000     -
2302     2303     2354     0.03000     -
2302     2354     2353     0.03000     -
2303     2304     2355     0.03000     -
2303     2355     2354     0.03000     -
2304     2305     2356     0.03000     -
2304     2356     2355     0.03000     -
2305     2306     2357     0.03000     -
2305     2357     2356     0.03000     -
2306     2307     2358     0.03000     -
2306     2358     2357     0.03000     -
2307     2308     2359     0.03000     -
2307     2359     2358     0.03000     -
2308     2309     2360     0.03000     -
2308     2360     2359     0.03000     -
2309     2310     2361     0.03000     -
2309     2361     2360     0.03000     -
2310     2311     2362     0.03000     -
2310     2362     2361     0.03000     -
2311     2312     2363     0.03000     -
2311     2363     2362     0.03000     -
2312     2313     2364     0.03000     -
2312     2364     2363     0.03000     -
2313     2314     2365     0.03000     -
2313     2365     2364     0.03000     -
2314     2315     2366     0.03000     -
2314     2366     2365     0.03000     -
2315     2316     2367     0.03000     -
2315     2367     2366     0.03000     -
2316     2317     2368     0.03000     -
2316     2368     2367     0.03000     -
2317     2318     2369     0.03000     -
2317     2369     2368     0.03000     -
2318     2319     2370     0.03000     -
2318     2370     2369     0.03000     -
2319     2320     2371     0.03000     -
2319     2371     2370     0.03000     -
2320     2321     2372     0.03000     -
2320     2372     2371     0.03000     -
2321     2322     2373     0.03000     -
2321     2373     2372     0.03000     -
2322     2323     2374     0.03000     -
2322     2374     2373     0.03000     -
2323     2324     2375     0.03000     -
2323     2375     2374     0.03000     -
2324     2325     2376     0.03000     -
2324     2376     2375     0.03000     -
2325     2326     2377     0.03000     -
2325     2377     2376     0.03000     -
2326     2327     2378     0.03000     -
2326     2378     2377     0.03000     -
2327     2328     2379     0.03000     -
2327     2379     2378     0.03000     -
2328     2329     2380     0.03000     -
2328     2380     2379     0.03000     -
2329     2330     2381     0.03000     -
2329     2381     2380     0.03000     -
2330     2331     2382     0.03000     -
2330     2382     2381     0.03000     -
2331     2332     2383     0.03000     -
2331     2383     2382     0.03000     -
2332     2333     2384     0.03000     -
2332     2384     2383     0.03000     -
2333     2334     2385     0.03000     -
2333     2385     2384     0.03000     -
2334     2335     2386     0.03000     -
2334     2386     2385     0.03000     -
2335     2336     2387     0.03000     -
2335     2387     2386     0.03000     -
2336     2337     2388     0.03000     -
2336     2388     2387     0.03000     -
2337     2338     2389     0.03000     -
2337     2389     2388     0.03000     -
2338     2339     2390     0.03000     -
2338     2390     2389     0.03000     -
2339     2340     2391     0.03000     -
2339     2391     2390     0.03000     -
2340     2341     2392     0.03000     -
2340     2392     2391     0.03000     -
2341     2342     2393     0.03000     -
2341     2393     2392     0.03000     -
2342     2343     2394     0.03000     -
2342     2394     2393     0.03000     -
2343     2344     2395     0.03000     -
2343     2395     2394     0.03000     -
2344     2345     2396     0.03000     -
2344     2396     2395     0.03000     -
2346     2347     2398     0.03000     -
2346     2398     2397     0.03000     -
2347     2348     2399     0.03000     -
2347     2399     2398     0.03000     -
2348     2349     2400     0.03000     -
2348     2400     2399     0.03000     -
2349     2350     2401     0.03000     -
2349     2401     2400     0.03000     -
2350     2351     2402     0.03000     -
2350     2402     2401     0.03000     -
2351     2352     2403     0.03000     -
2351     2403     2402     0.03000     -
2352     2353     2404     0.03000     -
2352     2404     2403     0.03000     -
2353     2354     2405     0.03000     -
2353     2405     2404     0.03000     -
2354     2355     2406     0.03000     -
2354     2406     2405     0.03000     -
2355     2356     2407     0.03000     -
2355     2407     2406     0.03000     -
2356     2357     2408     0.03000     -
2356     2408     2407     0.03000     -
2357     2358     2409     0.03000     -
2357     2409     2408     0.03000     -
2358     2359     2410     0.03000     -
2358     2410     2409     0.03000     -
2359     2360     2411     0.03000     -
2359     2411     2410     0.03000     -
2360     2361     2412     0.03000     -
2360     2412     2411     0.03000     -
2361     2362     2413     0.03000     -
2361     2413     2412     0.03000     -
2362     2363     2414     0.03000     -
2362     2414     2413     0.03000     -
2363     2364     2415     0.03000     -
2363     2415     2414     0.03000     -
2364     2365     2416     0.03000     -
2364     2416     2415     0.03000     -
2365     2366     2417     0.03000     -
2365     2417     2416     0.03000     -
2366     2367     2418     0.03000     -
2366     2418     2417     0.03000     -
2367     2368     2419     0.03000     -
2367     2419     2418     0.03000     -
2368     2369     2420     0.03000     -
2368     2420     2419     0.03000     -
2369     2370     2421     0.03000     -
2369     2421     2420     0.03000     -
2370     2371     2422     0.03000     -
2370     2422     2421     0.03000     -
2371     2372     2423     0.03000     -
2371     2423     2422     0.03000     -
2372     2373     2424     0.03000     -
2372     2424     2423     0.03000     -
2373     2374     2425     0.03000     -
2373     2425     2424     0.03000     -
2374     2375     2426     0.03000     -
2374     2426     2425     0.03000     -
2375     2376     2427     0.03000     -
2375     2427     2426     0.03000     -
2376     2377     2428     0.03000     -
2376     2428     2427     0.03000     -
2377     2378     2429     0.03000     -
2377     2429     2428     0.03000     -
2378     2379     2430     0.03000     -
2378     2430     2429     0.03000     -
2379     2380     2431     0.03000     -
2379     2431     2430     0.03000     -
2380     2381     2432     0.03000     -
2380     2432     2431     0.03000     -
2381     2382     2433     0.03000     -
2381     2433     2432     0.03000     -
2382     2383     2434     0.03000     -
2382     2434     2433     0.03000     -
2383     2384     2435     0.03000     -
2383     2435     2434     0.03000     -
2384     2385     2436     0.03000     -
2384     2436     2435     0.03000     -
2385     2386     2437     0.03000     -
2385     2437     2436     0.03000     -
2386     2387     2438     0.03000     -
2386     2438     2437     0.03000     -
2387     2388     2439     0.03000     -
2387     2439     2438     0.03000     -
2388     2389     2440     0.03000     -
2388     2440     2439     0.03000     -
2389     2390     2441     0.03000     -
2389     2441     2440     0.03000     -
2390     2391     2442     0.03000     -
2390     2442     2441     0.03000     -
2391     2392     2443     0.03000     -
2391     2443     2442     0.03000     -
2392     2393     2444     0.03000     -
2392     2444     2443     0.03000     -
2393     2394     2445     0.03000     -
2393     2445     2444     0.03000     -
2394     2395     2446     0.03000     -
2394     2446     2445     0.03000     -
2395     2396     2447     0.03000     -
2395     2447     2446     0.03000     -
2397     2398     2449     0.03000     -
2397     2449     2448     0.03000     -
2398     2399     2450     0.03000     -
2398     2450     2449     0.03000     -
2399     2400     2451     0.03000     -
2399     2451     2450     0.03000     -
2400     2401     2452     0.03000     -
2400     2452     2451     0.03000     -
2401     2402     2453     0.03000     -
2401     2453     2452     0.03000     -
2402     2403     2454     0.03000     -
2402     2454     2453     0.03000     -
2403     2404     2455     0.03000     -
2403     2455     2454     0.03000     -
2404     2405     2456     0.03000     -
2404     2456     2455     0.03000     -
2405     2406     2457     0.03000     -
2405     2457     2456     0.03000     -
2406     2407     2458     0.03000     -
2406     2458     2457     0.03000     -
2407     2408     2459     0.03000     -
2407     2459     2458     0.03000     -
2408     2409     2460     0.03000     -
2408     2460     2459     0.03000     -
2409     2410     2461     0.03000     -
2409     2461     2460     0.03000     -
2410     2411     2462     0.03000     -
2410     2462     2461     0.03000     -
2411     2412     2463     0.03000     -
2411     2463     2462     0.03000     -
2412     2413     2464     0.03000     -
2412     2464     2463     0.03000     -
2413     2414     2465     0.03000     -
2413     2465     2464     0.03000     -
2414     2415     2466     0.03000     -
2414     2466     2465     0.03000     -
2415     2416     2467     0.03000     -
2415     2467     2466     0.03000     -
2416     2417     2468     0.03000     -
2416     2468     2467     0.03000     -
2417     2418     2469     0.03000     -
2417     2469     2468     0.03000     -
2418     2419     2470     0.03000     -
2418     2470     2469     0.03000     -
2419     2420     2471     0.03000     -
2419     2471     2470     0.03000     -
2420     2421     2472     0.03000     -
2420     2472     2471     0.03000     -
2421     2422     2473     0.03000     -
2421     2473     2472     0.03000     -
2422     2423     2474     0.03000     -
2422     2474     2473     0.03000     -
2423     2424     2475     0.03000     -
2423     2475     2474     0.03000     -
2424     2425     2476     0.03000     -
2424     2476     2475     0.03000     -
2425     2426     2477     0.03000     -
2425     2477     2476     0.03000     -
2426     2427     2478     0.03000     -
2426     2478     2477     0.03000     -
2427     2428     2479     0.03000     -
2427     2479     2478     0.03000     -
2428     2429     2480     0.03000     -
2428     2480     2479     0.03000     -
2429     2430     2481     0.03000     -
2429     2481     2480     0.03000     -
2430     2431     2482     0.03000     -
2430     2482     2481     0.03000     -
2431     2432     2483     0.03000     -
2431     2483     2482     0.03000     -
2432     2433     2484     0.03000     -
2432     2484     2483     0.03000     -
2433     2434     2485     0.03000     -
2433     2485     2484     0.03000     -
2434     2435     2486     0.03000     -
2434     2486     2485     0.03000     -
2435     2436     2487     0.03000     -
2435     2487     2486     0.03000     -
2436     2437     2488     0.03000     -
2436     2488     2487     0.03000     -
2437     2438     2489     0.03000     -
2437     2489     2488     0.03000     -
2438     2439     2490     0.03000     -
2438     2490     2489     0.03000     -
2439     2440     2491     0.03000     -
2439     2491     2490     0.03000     -
2440     2441     2492     0.03000     -
2440     2492     2491     0.03000     -
2441     2442     2493     0.03000     -
2441     2493     2492     0.03000     -
2442     2443     2494     0.03000     -
2442     2494     2493     0.03000     -
2443     2444     2495     0.03000     -
2443     2495     2494     0.03000     -
2444     2445     2496     0.03000     -
2444     2496     2495     0.03000     -
2445     2446     2497     0.03000     -
2445     2497     2496     0.03000     -
2446     2447     2498     0.03000     -
2446     2498     2497     0.03000     -
2448     2449     2500     0.03000     -
2448     2500     2499     0.03000     -
2449     2450     2501     0.03000     -
2449     2501     2500     0.03000     -
2450     2451     2502     0.03000     -
2450     2502     2501     0.03000     -
2451     2452     2503     0.03000     -
2451     2503     2502     0.03000     -
2452     2453     2504     0.03000     -
2452     2504     2503     0.03000     -
2453     2454     2505     0.03000     -
2453     2505     2504     0.03000     -
2454     2455     2506     0.03000     -
2454     2506     2505     0.03000     -
2455     2456     2507     0.03000     -
2455     2507     2506     0.03000     -
2456     2457     2508     0.03000     -
2456     2508     2507     0.03000     -
2457     2458     2509     0.03000     -
2457     2509     2508     0.03000     -
2458     2459     2510     0.03000     -
2458     2510     2509     0.03000     -
2459     2460     2511     0.03000     -
2459     2511     2510     0.03000     -
2460     2461     2512     0.03000     -
2460     2512     2511     0.03000     -
2461     2462     2513     0.03000     -
2461     2513     2512     0.03000     -
2462     2463     2514     0.03000     -
2462     2514     2513     0.03000     -
2463     2464     2515     0.03000     -
2463     2515     2514     0.03000     -
2464     2465     2516     0.03000     -
2464     2516     2515     0.03000     -
2465     2466     2517     0.03000     -
2465     2517     2516     0.03000     -
2466     2467     2518     0.03000     -
2466     2518     2517     0.03000     -
2467     2468     2519     0.03000     -
2467     2519     2518     0.03000     -
2468     2469     2520     0.03000     -
2468     2520     2519     0.03000     -
2469     2470     2521     0.03000     -
2469     2521     2520     0.03000     -
2470     2471     2522     0.03000     -
2470     2522     2521     0.03000     -
2471     2472     2523     0.03000     -
2471     2523     2522     0.03000     -
2472     2473     2524     0.03000     -
2472     2524     2523     0.03000     -
2473     2474     2525     0.03000     -
2473     2525     2524     0.03000     -
2474     2475     2526     0.03000     -
2474     2526     2525     0.03000     -
2475     2476     2527     0.03000     -
2475     2527     2526     0.03000     -
2476     2477     2528     0.03000     -
2476     2528     2527     0.03000     -
2477     2478     2529     0.03000     -
2477     2529     2528     0.03000     -
2478     2479     2530     0.03000     -
2478     2530     2529     0.03000     -
2479     2480     2531     0.03000     -
2479     2531     2530     0.03000     -
2480     2481     2532     0.03000     -
2480     2532     2531     0.03000     -
2481     2482     2533     0.03000     -
2481     2533     2532     0.03000     -
2482     2483     2534     0.03000     -
2482     2534     2533     0.03000     -
2483     2484     2535     0.03000     -
2483     2535     2534     0.03000     -
2484     2485     2536     0.03000     -
2484     2536     2535     0.03000     -
2485     2486     2537     0.03000     -
2485     2537     2536     0.03000     -
2486     2487     2538     0.03000     -
2486     2538     2537     0.03000     -
2487     2488     2539     0.03000     -
2487     2539     2538     0.03000     -
2488     2489     2540     0.03000     -
2488     2540     2539     0.03000     -
2489     2490     2541     0.03000     -
2489     2541     2540     0.03000     -
2490     2491     2542     0.03000     -
2490     2542     2541     0.03000     -
2491     2492     2543     0.03000     -
2491     2543     2542     0.03000     -
2492     2493     2544     0.03000     -
2492     2544     2543     0.03000     -
2493     2494     2545     0.03000     -
2493     2545     2544     0.03000     -
2494     2495     2546     0.03000     -
2494     2546     2545     0.03000     -
2495     2496     2547     0.03000     -
2495     2547     2546     0.03000     -
2496     2497     2548     0.03000     -
2496     2548     2547     0.03000     -
2497     2498     2549     0.03000     -
2497     2549     2548     0.03000     -
2499     2500     2551     0.03000     -
2499     2551     2550     0.03000     -
2500     2501     2552     0.03000     -
2500     2552     2551     0.03000     -
2501     2502     2553     0.03000     -
2501     2553     2552     0.03000     -
2502     2503     2554     0.03000     -
2502     2554     2553     0.03000     -
2503     2504     2555     0.03000     -
2503     2555     2554     0.03000     -
2504     2505     2556     0.03000     -
2504     2556     2555     0.03000     -
2505     2506     2557     0.03000     -
2505     2557     2556     0.03000     -
2506     2507     2558     0.03000     -
2506     2558     2557     0.03000     -
2507     2508     2559     0.03000     -
2507     2559     2558     0.03000     -
2508     2509     2560     0.03000     -
2508     2560     2559     0.03000     -
2509     2510     2561     0.03000     -
2509     2561     2560     0.03000     -
2510     2511     2562     0.03000     -
2510     2562     2561     0.03000     -
2511     2512     2563     0.03000     -
2511     2563     2562     0.03000     -
2512     2513     2564     0.03000     -
2512     2564     2563     0.03000     -
2513     2514     2565     0.03000     -
2513     2565     2564     0.03000     -
2514     2515     2566     0.03000     -
2514     2566     2565     0.03000     -
2515     2516     2567     0.03000     -
2515     2567     2566     0.03000     -
2516     2517     2568     0.03000     -
2516     2568     2567     0.03000     -
2517     2518     2569     0.03000     -
2517     2569     2568     0.03000     -
2518     2519     2570     0.03000     -
2518     2570     2569     0.03000     -
2519     2520     2571     0.03000     -
2519     2571     2570     0.03000     -
2520     2521     2572     0.03000     -
2520     2572     2571     0.03000     -
2521     2522     2573     0.03000     -
2521     2573     2572     0.03000     -
2522     2523     2574     0.03000     -
2522     2574     2573     0.03000     -
2523     2524     2575     0.03000     -
2523     2575     2574     0.03000     -
2524     2525     2576     0.03000     -
2524     2576     2575     0.03000     -
2525     2526     2577     0.03000     -
2525     2577     2576     0.03000     -
2526     2527     2578     0.03000     -
2526     2578     2577     0.03000     -
2527     2528     2579     0.03000     -
2527     2579     2578     0.03000     -
2528     2529     2580     0.03000     -
2528     2580     2579     0.03000     -
2529     2530     2581     0.03000     -
2529     2581     2580     0.03000     -
2530     2531     2582     0.03000     -
2530     2582     2581     0.03000     -
2531     2532     2583     0.03000     -
2531     2583     2582     0.03000     -
2532     2533     2584     0.03000     -
2532     2584     2583     0.03000     -
2533     2534     2585     0.03000     -
2533     2585     2584     0.03000     -
2534     2535     2586     0.03000     -
2534     2586     2585     0.03000     -
2535     2536     2587     0.03000     -
2535     2587     2586     0.03000     -
2536     2537     2588     0.03000     -
2536     2588     2587     0.03000     -
2537     2538     2589     0.03000     -
2537     2589     2588     0.03000     -
2538     2539     2590     0.03000     -
2538     2590     2589     0.03000     -
2539     2540     2591     0.03000     -
2539     2591     2590     0.03000     -
2540     2541     2592     0.03000     -
2540     2592     2591     0.03000     -
2541     2542     2593     0.03000     -
2541     2593     2592     0.03000     -
2542     2543     2594     0.03000     -
2542     2594     2593     0.03000     -
2543     2544     2595     0.03000     -
2543     2595     2594     0.03000     -
2544     2545     2596     0.03000     -
2544     2596     2595     0.03000     -
2545     2546     2597     0.03000     -
2545     2597     2596     0.03000     -
2546     2547     2598     0.03000     -
2546     2598     2597     0.03000     -
2547     2548     2599     0.03000     -
2547     2599     2598     0.03000     -
2548     2549     2600     0.03000     -
2548     2600     2599     0.03000     -
