[TITLE]
Smoke test model

[OPTIONS]
START_DATE               01/01/2024
START_TIME               00:00:00
REPORT_START_DATE        01/01/2024
REPORT_START_TIME        00:00:00
END_DATE                 01/02/2024
END_TIME                 00:00:00
ROUTING_STEP             0:00:30
FLOW_ROUTING             DYNWAVE

[JUNCTIONS]
J1  0  2  0  0  0

[OUTFALLS]
O1  0  FREE  NO

[CONDUITS]
C1  J1  O1  500  0.01  0  0  0  0

[XSECTIONS]
C1  CIRCULAR  0.5  0  0  0  1  0

[REPORT]
INPUT      NO
CONTROLS   NO
SUBCATCHMENTS NONE
NODES ALL
LINKS ALL

[COORDINATES]
J1  0  0
O1  1  1
